                       MSC.Patran 21.1.348049 Fri Jul 03 23:12:17 PDT 2015 - Analysis Code: MSC.Nastran 

                                             Load Case: Combined_Loads, Subcase 5 

                                             Result Stress Tensor,  - Layer At Z1 

                                                     Entity: Element Tensor


-Entity ID--El. Pos. ID---X Location----Y Location----Z Location----von Mises---
       1           0      2028.065308   -541.565674  -29166.66601    147.133743
       2           0      2028.065308   -541.565674  -29500.00000    213.720154
       3           0      2028.065308   -541.565674  -29833.33203    201.373932
       4           0      2028.065308   -541.565674  -30166.66601    188.671844
       5           0      2028.065308   -541.565674  -30500.00000    180.562424
       6           0      2028.065308   -541.565674  -30833.33593    173.641098
       7           0      2028.065308   -541.565674  -31166.66601    168.049774
       8           0      2028.065308   -541.565674  -31500.00000    166.111069
       9           0      2028.065308   -541.565674  -31833.33203    164.586029
      10           0      2028.065308   -541.565674  -32166.66796    167.937271
      11           0      2028.065308   -541.565674  -32500.00195    171.311615
      12           0      2028.065308   -541.565674  -32833.33593    181.701691
      13           0      2028.065308   -541.565674  -33166.66796    189.276276
      14           0      2028.065308   -541.565674  -33500.00000    215.283661
      15           0      2028.065308   -541.565674  -33833.33593    151.251892
      16           0      2055.883057   -423.895721  -29166.66601     71.344467
      17           0      2055.883057   -423.895721  -29500.00000     98.145226
      18           0      2055.883057   -423.895721  -29833.33203    121.300148
      19           0      2055.883057   -423.895721  -30166.66601    125.934082
      20           0      2055.883057   -423.895721  -30500.00000    132.025452
      21           0      2055.883057   -423.895721  -30833.33593    134.679565
      22           0      2055.883057   -423.895721  -31166.66601    135.133667
      23           0      2055.883057   -423.895721  -31500.00000    135.323090
      24           0      2055.883057   -423.895721  -31833.33203    133.425018
      25           0      2055.883057   -423.895721  -32166.66796    131.248276
      26           0      2055.883057   -423.895721  -32500.00195    126.600777
      27           0      2055.883057   -423.895721  -32833.33593    118.242912
      28           0      2055.883057   -423.895721  -33166.66796    108.438828
      29           0      2055.883057   -423.895721  -33500.00000     65.808716
      30           0      2055.883057   -423.895721  -33833.33593     37.453720
      31           0      2076.948730   -304.226929  -29166.66601     87.208893
      32           0      2076.948730   -304.226929  -29500.00000     79.793701
      33           0      2076.948730   -304.226929  -29833.33203     66.164116
      34           0      2076.948730   -304.226929  -30166.66601     67.391479
      35           0      2076.948730   -304.226929  -30500.00000     76.898163
      36           0      2076.948730   -304.226929  -30833.33593     83.523148
      37           0      2076.948730   -304.226929  -31166.66601     87.932541
      38           0      2076.948730   -304.226929  -31500.00000     89.957870
      39           0      2076.948730   -304.226929  -31833.33203     87.264801
      40           0      2076.948730   -304.226929  -32166.66796     83.186996
      41           0      2076.948730   -304.226929  -32500.00195     71.046188
      42           0      2076.948730   -304.226929  -32833.33593     56.592216
      43           0      2076.948730   -304.226929  -33166.66796     25.140987
      44           0      2076.948730   -304.226929  -33500.00000     33.193150
      45           0      2076.948730   -304.226929  -33833.33593     55.705490
      46           0      2091.124268   -182.948318  -29166.66601     89.952164
      47           0      2091.124268   -182.948318  -29500.00000     87.467529
      48           0      2091.124268   -182.948318  -29833.33203     62.796898
      49           0      2091.124268   -182.948318  -30166.66601     46.280952
      50           0      2091.124268   -182.948318  -30500.00000     37.049137
      51           0      2091.124268   -182.948318  -30833.33593     38.203918
      52           0      2091.124268   -182.948318  -31166.66601     42.067917
      53           0      2091.124268   -182.948318  -31500.00000     43.746281
      54           0      2091.124268   -182.948318  -31833.33203     43.388744
      55           0      2091.124268   -182.948318  -32166.66796     38.097866
      56           0      2091.124268   -182.948318  -32500.00195     30.236427
      57           0      2091.124268   -182.948318  -32833.33593     20.205927
      58           0      2091.124268   -182.948318  -33166.66796     29.753960
      59           0      2091.124268   -182.948318  -33500.00000     49.135597
      60           0      2091.124268   -182.948318  -33833.33593     48.940517
      61           0      2098.223877    -61.050758  -29166.66601     84.402290
      62           0      2098.223877    -61.050758  -29500.00000     85.531311
      63           0      2098.223877    -61.050758  -29833.33203     69.560905
      64           0      2098.223877    -61.050758  -30166.66601     57.484444
      65           0      2098.223877    -61.050758  -30500.00000     42.064278
      66           0      2098.223877    -61.050758  -30833.33593     31.400784
      67           0      2098.223877    -61.050758  -31166.66601     26.076096
      68           0      2098.223877    -61.050758  -31500.00000     25.440237
      69           0      2098.223877    -61.050758  -31833.33203     26.280323
      70           0      2098.223877    -61.050758  -32166.66796     28.885595
      71           0      2098.223877    -61.050758  -32500.00195     31.935192
      72           0      2098.223877    -61.050758  -32833.33593     38.599243
      73           0      2098.223877    -61.050758  -33166.66796     44.405819
      74           0      2098.223877    -61.050758  -33500.00000     42.494614
      75           0      2098.223877    -61.050758  -33833.33593     35.475441
      76           0      2098.223633     61.052742  -29166.66601     74.524551
      77           0      2098.223633     61.052742  -29500.00000     77.823135
      78           0      2098.223633     61.052742  -29833.33203     67.666603
      79           0      2098.223633     61.052742  -30166.66601     63.672417
      80           0      2098.223633     61.052742  -30500.00000     56.275375
      81           0      2098.223633     61.052742  -30833.33593     49.234188
      82           0      2098.223633     61.052742  -31166.66601     44.408497
      83           0      2098.223633     61.052742  -31500.00000     42.101589
      84           0      2098.223633     61.052742  -31833.33203     41.854961
      85           0      2098.223633     61.052742  -32166.66796     43.031536
      86           0      2098.223633     61.052742  -32500.00195     44.236095
      87           0      2098.223633     61.052742  -32833.33593     44.181824
      88           0      2098.223633     61.052742  -33166.66796     39.226578
      89           0      2098.223633     61.052742  -33500.00000     32.022087
      90           0      2098.223633     61.052742  -33833.33593     28.124596
      91           0      2091.123779    182.949707  -29166.66601     63.644989
      92           0      2091.123779    182.949707  -29500.00000     67.499847
      93           0      2091.123779    182.949707  -29833.33203     61.045506
      94           0      2091.123779    182.949707  -30166.66601     60.661919
      95           0      2091.123779    182.949707  -30500.00000     59.223907
      96           0      2091.123779    182.949707  -30833.33593     57.288628
      97           0      2091.123779    182.949707  -31166.66601     54.917171
      98           0      2091.123779    182.949707  -31500.00000     52.653458
      99           0      2091.123779    182.949707  -31833.33203     50.358326
     100           0      2091.123779    182.949707  -32166.66796     47.526535
     101           0      2091.123779    182.949707  -32500.00195     43.051777
     102           0      2091.123779    182.949707  -32833.33593     36.031250
     103           0      2091.123779    182.949707  -33166.66796     28.246073
     104           0      2091.123779    182.949707  -33500.00000     26.417330
     105           0      2091.123779    182.949707  -33833.33593     27.845724
     106           0      2076.948242    304.228210  -29166.66601     52.838943
     107           0      2076.948242    304.228210  -29500.00000     56.730202
     108           0      2076.948242    304.228210  -29833.33203     52.658646
     109           0      2076.948242    304.228210  -30166.66601     53.169537
     110           0      2076.948242    304.228210  -30500.00000     53.731220
     111           0      2076.948242    304.228210  -30833.33593     54.246235
     112           0      2076.948242    304.228210  -31166.66601     53.528580
     113           0      2076.948242    304.228210  -31500.00000     51.160675
     114           0      2076.948242    304.228210  -31833.33203     47.135227
     115           0      2076.948242    304.228210  -32166.66796     40.904724
     116           0      2076.948242    304.228210  -32500.00195     32.425125
     117           0      2076.948242    304.228210  -32833.33593     23.137085
     118           0      2076.948242    304.228210  -33166.66796     18.477539
     119           0      2076.948242    304.228210  -33500.00000     24.352028
     120           0      2076.948242    304.228210  -33833.33593     28.434353
     121           0      2055.745117    424.477325  -29166.66601     42.739738
     122           0      2055.745117    424.477325  -29500.00000     46.332760
     123           0      2055.745117    424.477325  -29833.33203     43.841072
     124           0      2055.745117    424.477325  -30166.66601     44.279579
     125           0      2055.745117    424.477325  -30500.00000     44.696449
     126           0      2055.745117    424.477325  -30833.33593     45.103916
     127           0      2055.745117    424.477325  -31166.66601     44.487587
     128           0      2055.745117    424.477325  -31500.00000     41.745106
     129           0      2055.745117    424.477325  -31833.33203     36.698425
     130           0      2055.745117    424.477325  -32166.66796     28.916771
     131           0      2055.745117    424.477325  -32500.00195     19.504837
     132           0      2055.745117    424.477325  -32833.33593     11.109481
     133           0      2055.745117    424.477325  -33166.66796     11.593024
     134           0      2055.745117    424.477325  -33500.00000     21.823929
     135           0      2055.745117    424.477325  -33833.33593     26.464996
     136           0      2027.586060    543.290161  -29166.66601     33.621971
     137           0      2027.586060    543.290161  -29500.00000     36.621281
     138           0      2027.586060    543.290161  -29833.33203     35.142151
     139           0      2027.586060    543.290161  -30166.66601     35.300247
     140           0      2027.586060    543.290161  -30500.00000     35.226635
     141           0      2027.586060    543.290161  -30833.33593     34.757442
     142           0      2027.586060    543.290161  -31166.66601     33.489880
     143           0      2027.586060    543.290161  -31500.00000     30.450569
     144           0      2027.586060    543.290161  -31833.33203     25.459852
     145           0      2027.586060    543.290161  -32166.66796     18.289526
     146           0      2027.586060    543.290161  -32500.00195     10.168120
     147           0      2027.586060    543.290161  -32833.33593      2.126756
     148           0      2027.586060    543.290161  -33166.66796      7.278719
     149           0      2027.586060    543.290161  -33500.00000     17.583551
     150           0      2027.586060    543.290161  -33833.33593     21.753920
     151           0      1992.566162    660.264648  -29166.66601     25.553343
     152           0      1992.566162    660.264648  -29500.00000     27.743334
     153           0      1992.566162    660.264648  -29833.33203     26.903864
     154           0      1992.566162    660.264648  -30166.66601     26.880775
     155           0      1992.566162    660.264648  -30500.00000     26.736387
     156           0      1992.566162    660.264648  -30833.33593     26.099823
     157           0      1992.566162    660.264648  -31166.66601     24.848341
     158           0      1992.566162    660.264648  -31500.00000     22.382120
     159           0      1992.566162    660.264648  -31833.33203     18.695061
     160           0      1992.566162    660.264648  -32166.66796     13.845392
     161           0      1992.566162    660.264648  -32500.00195      8.671793
     162           0      1992.566162    660.264648  -32833.33593      4.372958
     163           0      1992.566162    660.264648  -33166.66796      5.694924
     164           0      1992.566162    660.264648  -33500.00000     12.439128
     165           0      1992.566162    660.264648  -33833.33593     15.485954
     166           0      1950.804199    775.005005  -29166.66601     18.496902
     167           0      1950.804199    775.005005  -29500.00000     19.806065
     168           0      1950.804199    775.005005  -29833.33203     19.457071
     169           0      1950.804199    775.005005  -30166.66601     19.510063
     170           0      1950.804199    775.005005  -30500.00000     19.796761
     171           0      1950.804199    775.005005  -30833.33593     19.872379
     172           0      1950.804199    775.005005  -31166.66601     19.630014
     173           0      1950.804199    775.005005  -31500.00000     18.561649
     174           0      1950.804199    775.005005  -31833.33203     16.525831
     175           0      1950.804199    775.005005  -32166.66796     13.714941
     176           0      1950.804199    775.005005  -32500.00195     10.483994
     177           0      1950.804199    775.005005  -32833.33593      7.781171
     178           0      1950.804199    775.005005  -33166.66796      6.415192
     179           0      1950.804199    775.005005  -33500.00000      8.194075
     180           0      1950.804199    775.005005  -33833.33593      9.548381
     181           0      1902.441162    887.123047  -29166.66601     12.437753
     182           0      1902.441162    887.123047  -29500.00000     12.969848
     183           0      1902.441162    887.123047  -29833.33203     13.144279
     184           0      1902.441162    887.123047  -30166.66601     13.570967
     185           0      1902.441162    887.123047  -30500.00000     14.521574
     186           0      1902.441162    887.123047  -30833.33593     15.430470
     187           0      1902.441162    887.123047  -31166.66601     16.107822
     188           0      1902.441162    887.123047  -31500.00000     16.034557
     189           0      1902.441162    887.123047  -31833.33203     14.923211
     190           0      1902.441162    887.123047  -32166.66796     13.095956
     191           0      1902.441162    887.123047  -32500.00195     10.797604
     192           0      1902.441162    887.123047  -32833.33593      9.002784
     193           0      1902.441162    887.123047  -33166.66796      7.491989
     194           0      1902.441162    887.123047  -33500.00000      7.149071
     195           0      1902.441162    887.123047  -33833.33593      6.912666
     196           0      1847.640869    996.239258  -29166.66601      7.588329
     197           0      1847.640869    996.239258  -29500.00000      7.641249
     198           0      1847.640869    996.239258  -29833.33203      8.412454
     199           0      1847.640869    996.239258  -30166.66601      9.341646
     200           0      1847.640869    996.239258  -30500.00000     10.705832
     201           0      1847.640869    996.239258  -30833.33593     11.860940
     202           0      1847.640869    996.239258  -31166.66601     12.648723
     203           0      1847.640869    996.239258  -31500.00000     12.740717
     204           0      1847.640869    996.239258  -31833.33203     11.971666
     205           0      1847.640869    996.239258  -32166.66796     10.745645
     206           0      1847.640869    996.239258  -32500.00195      9.279940
     207           0      1847.640869    996.239258  -32833.33593      8.570926
     208           0      1847.640869    996.239258  -33166.66796      7.981820
     209           0      1847.640869    996.239258  -33500.00000      8.720947
     210           0      1847.640869    996.239258  -33833.33593      8.540944
     211           0      1786.588867   1101.984619  -29166.66601      4.837535
     212           0      1786.588867   1101.984619  -29500.00000      5.011721
     213           0      1786.588867   1101.984619  -29833.33203      5.972763
     214           0      1786.588867   1101.984619  -30166.66601      7.032721
     215           0      1786.588867   1101.984619  -30500.00000      8.090461
     216           0      1786.588867   1101.984619  -30833.33593      8.782015
     217           0      1786.588867   1101.984619  -31166.66601      9.036031
     218           0      1786.588867   1101.984619  -31500.00000      8.776618
     219           0      1786.588867   1101.984619  -31833.33203      8.049122
     220           0      1786.588867   1101.984619  -32166.66796      7.266222
     221           0      1786.588867   1101.984619  -32500.00195      6.666501
     222           0      1786.588867   1101.984619  -32833.33593      7.227256
     223           0      1786.588867   1101.984619  -33166.66796      7.882250
     224           0      1786.588867   1101.984619  -33500.00000     10.305383
     225           0      1786.588867   1101.984619  -33833.33593     10.677913
     226           0      1719.491455   1204.001221  -29166.66601      5.146291
     227           0      1719.491455   1204.001221  -29500.00000      5.738502
     228           0      1719.491455   1204.001221  -29833.33203      5.919205
     229           0      1719.491455   1204.001221  -30166.66601      6.439890
     230           0      1719.491455   1204.001221  -30500.00000      6.580862
     231           0      1719.491455   1204.001221  -30833.33593      6.443977
     232           0      1719.491455   1204.001221  -31166.66601      5.917499
     233           0      1719.491455   1204.001221  -31500.00000      5.079193
     234           0      1719.491455   1204.001221  -31833.33203      4.128328
     235           0      1719.491455   1204.001221  -32166.66796      3.597048
     236           0      1719.491455   1204.001221  -32500.00195      3.968175
     237           0      1719.491455   1204.001221  -32833.33593      5.842819
     238           0      1719.491455   1204.001221  -33166.66796      7.488342
     239           0      1719.491455   1204.001221  -33500.00000     10.959368
     240           0      1719.491455   1204.001221  -33833.33593     11.641645
     241           0      1646.575928   1301.943604  -29166.66601      6.571480
     242           0      1646.575928   1301.943604  -29500.00000      7.221578
     243           0      1646.575928   1301.943604  -29833.33203      6.666963
     244           0      1646.575928   1301.943604  -30166.66601      6.633904
     245           0      1646.575928   1301.943604  -30500.00000      6.020507
     246           0      1646.575928   1301.943604  -30833.33593      5.293898
     247           0      1646.575928   1301.943604  -31166.66601      4.233788
     248           0      1646.575928   1301.943604  -31500.00000      2.948941
     249           0      1646.575928   1301.943604  -31833.33203      1.526539
     250           0      1646.575928   1301.943604  -32166.66796      1.040233
     251           0      1646.575928   1301.943604  -32500.00195      2.632652
     252           0      1646.575928   1301.943604  -32833.33593      5.119539
     253           0      1646.575928   1301.943604  -33166.66796      7.039576
     254           0      1646.575928   1301.943604  -33500.00000     10.661942
     255           0      1646.575928   1301.943604  -33833.33593     11.342184
     256           0      1568.088867   1395.480957  -29166.66601      7.473818
     257           0      1568.088867   1395.480957  -29500.00000      7.978199
     258           0      1568.088867   1395.480957  -29833.33203      7.047918
     259           0      1568.088867   1395.480957  -30166.66601      6.767568
     260           0      1568.088867   1395.480957  -30500.00000      5.928606
     261           0      1568.088867   1395.480957  -30833.33593      5.166917
     262           0      1568.088867   1395.480957  -31166.66601      4.224576
     263           0      1568.088867   1395.480957  -31500.00000      3.309647
     264           0      1568.088867   1395.480957  -31833.33203      2.566574
     265           0      1568.088867   1395.480957  -32166.66796      2.487565
     266           0      1568.088867   1395.480957  -32500.00195      3.321826
     267           0      1568.088867   1395.480957  -32833.33593      5.067148
     268           0      1568.088867   1395.480957  -33166.66796      6.587463
     269           0      1568.088867   1395.480957  -33500.00000      9.667078
     270           0      1568.088867   1395.480957  -33833.33593     10.126813
     271           0      1484.295898   1484.296265  -29166.66601      7.523260
     272           0      1484.295898   1484.296265  -29500.00000      7.819784
     273           0      1484.295898   1484.296265  -29833.33203      6.828141
     274           0      1484.295898   1484.296265  -30166.66601      6.542175
     275           0      1484.295898   1484.296265  -30500.00000      5.845098
     276           0      1484.295898   1484.296265  -30833.33593      5.339605
     277           0      1484.295898   1484.296265  -31166.66601      4.762032
     278           0      1484.295898   1484.296265  -31500.00000      4.293955
     279           0      1484.295898   1484.296265  -31833.33203      3.955731
     280           0      1484.295898   1484.296265  -32166.66796      3.919043
     281           0      1484.295898   1484.296265  -32500.00195      4.248874
     282           0      1484.295898   1484.296265  -32833.33593      5.166669
     283           0      1484.295898   1484.296265  -33166.66796      6.072537
     284           0      1484.295898   1484.296265  -33500.00000      8.284268
     285           0      1484.295898   1484.296265  -33833.33593      8.432197
     286           0      1395.480469   1568.089111  -29166.66601      6.871733
     287           0      1395.480469   1568.089111  -29500.00000      6.987770
     288           0      1395.480469   1568.089111  -29833.33203      6.200488
     289           0      1395.480469   1568.089111  -30166.66601      6.047089
     290           0      1395.480469   1568.089111  -30500.00000      5.639260
     291           0      1395.480469   1568.089111  -30833.33593      5.408819
     292           0      1395.480469   1568.089111  -31166.66601      5.122943
     293           0      1395.480469   1568.089111  -31500.00000      4.894610
     294           0      1395.480469   1568.089111  -31833.33203      4.703450
     295           0      1395.480469   1568.089111  -32166.66796      4.635433
     296           0      1395.480469   1568.089111  -32500.00195      4.705848
     297           0      1395.480469   1568.089111  -32833.33593      5.075917
     298           0      1395.480469   1568.089111  -33166.66796      5.459315
     299           0      1395.480469   1568.089111  -33500.00000      6.792788
     300           0      1395.480469   1568.089111  -33833.33593      6.644711
     301           0      1301.943237   1646.576172  -29166.66601      5.936099
     302           0      1301.943237   1646.576172  -29500.00000      5.962076
     303           0      1301.943237   1646.576172  -29833.33203      5.556300
     304           0      1301.943237   1646.576172  -30166.66601      5.571926
     305           0      1301.943237   1646.576172  -30500.00000      5.432489
     306           0      1301.943237   1646.576172  -30833.33593      5.376208
     307           0      1301.943237   1646.576172  -31166.66601      5.248477
     308           0      1301.943237   1646.576172  -31500.00000      5.113173
     309           0      1301.943237   1646.576172  -31833.33203      4.957033
     310           0      1301.943237   1646.576172  -32166.66796      4.825609
     311           0      1301.943237   1646.576172  -32500.00195      4.732407
     312           0      1301.943237   1646.576172  -32833.33593      4.760620
     313           0      1301.943237   1646.576172  -33166.66796      4.787673
     314           0      1301.943237   1646.576172  -33500.00000      5.408978
     315           0      1301.943237   1646.576172  -33833.33593      5.046304
     316           0      1204.000732   1719.491699  -29166.66601      5.330707
     317           0      1204.000732   1719.491699  -29500.00000      5.381364
     318           0      1204.000732   1719.491699  -29833.33203      5.310448
     319           0      1204.000732   1719.491699  -30166.66601      5.412538
     320           0      1204.000732   1719.491699  -30500.00000      5.389638
     321           0      1204.000732   1719.491699  -30833.33593      5.364211
     322           0      1204.000732   1719.491699  -31166.66601      5.258339
     323           0      1204.000732   1719.491699  -31500.00000      5.110672
     324           0      1204.000732   1719.491699  -31833.33203      4.921655
     325           0      1204.000732   1719.491699  -32166.66796      4.710660
     326           0      1204.000732   1719.491699  -32500.00195      4.502589
     327           0      1204.000732   1719.491699  -32833.33593      4.323215
     328           0      1204.000732   1719.491699  -33166.66796      4.140025
     329           0      1204.000732   1719.491699  -33500.00000      4.274885
     330           0      1204.000732   1719.491699  -33833.33593      3.806585
     331           0      1101.984131   1786.588989  -29166.66601      5.556392
     332           0      1101.984131   1786.588989  -29500.00000      5.681680
     333           0      1101.984131   1786.588989  -29833.33203      5.618858
     334           0      1101.984131   1786.588989  -30166.66601      5.652449
     335           0      1101.984131   1786.588989  -30500.00000      5.552516
     336           0      1101.984131   1786.588989  -30833.33593      5.432005
     337           0      1101.984131   1786.588989  -31166.66601      5.239991
     338           0      1101.984131   1786.588989  -31500.00000      5.009839
     339           0      1101.984131   1786.588989  -31833.33203      4.746209
     340           0      1101.984131   1786.588989  -32166.66796      4.453741
     341           0      1101.984131   1786.588989  -32500.00195      4.164526
     342           0      1101.984131   1786.588989  -32833.33593      3.870908
     343           0      1101.984131   1786.588989  -33166.66796      3.586958
     344           0      1101.984131   1786.588989  -33500.00000      3.453173
     345           0      1101.984131   1786.588989  -33833.33593      2.989906
     346           0       996.238892   1847.641113  -29166.66601      6.489191
     347           0       996.238892   1847.641113  -29500.00000      6.647984
     348           0       996.238892   1847.641113  -29833.33203      6.283279
     349           0       996.238892   1847.641113  -30166.66601      6.136030
     350           0       996.238892   1847.641113  -30500.00000      5.832205
     351           0       996.238892   1847.641113  -30833.33593      5.546515
     352           0       996.238892   1847.641113  -31166.66601      5.209843
     353           0       996.238892   1847.641113  -31500.00000      4.863778
     354           0       996.238892   1847.641113  -31833.33203      4.508041
     355           0       996.238892   1847.641113  -32166.66796      4.143548
     356           0       996.238892   1847.641113  -32500.00195      3.801623
     357           0       996.238892   1847.641113  -32833.33593      3.461549
     358           0       996.238892   1847.641113  -33166.66796      3.154416
     359           0       996.238892   1847.641113  -33500.00000      2.926764
     360           0       996.238892   1847.641113  -33833.33593      2.554560
     361           0       887.122559   1902.441284  -29166.66601      7.643918
     362           0       887.122559   1902.441284  -29500.00000      7.790953
     363           0       887.122559   1902.441284  -29833.33203      7.018539
     364           0       887.122559   1902.441284  -30166.66601      6.656636
     365           0       887.122559   1902.441284  -30500.00000      6.111502
     366           0       887.122559   1902.441284  -30833.33593      5.642858
     367           0       887.122559   1902.441284  -31166.66601      5.147831
     368           0       887.122559   1902.441284  -31500.00000      4.681029
     369           0       887.122559   1902.441284  -31833.33203      4.234406
     370           0       887.122559   1902.441284  -32166.66796      3.812591
     371           0       887.122559   1902.441284  -32500.00195      3.441623
     372           0       887.122559   1902.441284  -32833.33593      3.101472
     373           0       887.122559   1902.441284  -33166.66796      2.822019
     374           0       887.122559   1902.441284  -33500.00000      2.614797
     375           0       887.122559   1902.441284  -33833.33593      2.372814
     376           0       775.004578   1950.804199  -29166.66601      8.674072
     377           0       775.004578   1950.804199  -29500.00000      8.794503
     378           0       775.004578   1950.804199  -29833.33203      7.644404
     379           0       775.004578   1950.804199  -30166.66601      7.084417
     380           0       775.004578   1950.804199  -30500.00000      6.318338
     381           0       775.004578   1950.804199  -30833.33593      5.680596
     382           0       775.004578   1950.804199  -31166.66601      5.040478
     383           0       775.004578   1950.804199  -31500.00000      4.463172
     384           0       775.004578   1950.804199  -31833.33203      3.935528
     385           0       775.004578   1950.804199  -32166.66796      3.469067
     386           0       775.004578   1950.804199  -32500.00195      3.084756
     387           0       775.004578   1950.804199  -32833.33593      2.770764
     388           0       775.004578   1950.804199  -33166.66796      2.547430
     389           0       775.004578   1950.804199  -33500.00000      2.418945
     390           0       775.004578   1950.804199  -33833.33593      2.308693
     391           0       660.264221   1992.566406  -29166.66601      9.431318
     392           0       660.264221   1992.566406  -29500.00000      9.531326
     393           0       660.264221   1992.566406  -29833.33203      8.089660
     394           0       660.264221   1992.566406  -30166.66601      7.371998
     395           0       660.264221   1992.566406  -30500.00000      6.432857
     396           0       660.264221   1992.566406  -30833.33593      5.655644
     397           0       660.264221   1992.566406  -31166.66601      4.895937
     398           0       660.264221   1992.566406  -31500.00000      4.223203
     399           0       660.264221   1992.566406  -31833.33203      3.624430
     400           0       660.264221   1992.566406  -32166.66796      3.118498
     401           0       660.264221   1992.566406  -32500.00195      2.725690
     402           0       660.264221   1992.566406  -32833.33593      2.446831
     403           0       660.264221   1992.566406  -33166.66796      2.292222
     404           0       660.264221   1992.566406  -33500.00000      2.266487
     405           0       660.264221   1992.566406  -33833.33593      2.277953
     406           0       543.289673   2027.586182  -29166.66601      9.892391
     407           0       543.289673   2027.586182  -29500.00000      9.985965
     408           0       543.289673   2027.586182  -29833.33203      8.350900
     409           0       543.289673   2027.586182  -30166.66601      7.523146
     410           0       543.289673   2027.586182  -30500.00000      6.466734
     411           0       543.289673   2027.586182  -30833.33593      5.585775
     412           0       543.289673   2027.586182  -31166.66601      4.735750
     413           0       543.289673   2027.586182  -31500.00000      3.983101
     414           0       543.289673   2027.586182  -31833.33203      3.319503
     415           0       543.289673   2027.586182  -32166.66796      2.770345
     416           0       543.289673   2027.586182  -32500.00195      2.362392
     417           0       543.289673   2027.586182  -32833.33593      2.115036
     418           0       543.289673   2027.586182  -33166.66796      2.033685
     419           0       543.289673   2027.586182  -33500.00000      2.121236
     420           0       543.289673   2027.586182  -33833.33593      2.246689
     421           0       424.476898   2055.745361  -29166.66601     10.103277
     422           0       424.476898   2055.745361  -29500.00000     10.203732
     423           0       424.476898   2055.745361  -29833.33203      8.461207
     424           0       424.476898   2055.745361  -30166.66601      7.567187
     425           0       424.476898   2055.745361  -30500.00000      6.444244
     426           0       424.476898   2055.745361  -30833.33593      5.494387
     427           0       424.476898   2055.745361  -31166.66601      4.582206
     428           0       424.476898   2055.745361  -31500.00000      3.764824
     429           0       424.476898   2055.745361  -31833.33203      3.040420
     430           0       424.476898   2055.745361  -32166.66796      2.438365
     431           0       424.476898   2055.745361  -32500.00195      1.999313
     432           0       424.476898   2055.745361  -32833.33593      1.772011
     433           0       424.476898   2055.745361  -33166.66796      1.767080
     434           0       424.476898   2055.745361  -33500.00000      1.975437
     435           0       424.476898   2055.745361  -33833.33593      2.208912
     436           0       304.227783   2076.948730  -29166.66601     10.142263
     437           0       304.227783   2076.948730  -29500.00000     10.257272
     438           0       304.227783   2076.948730  -29833.33203      8.469165
     439           0       304.227783   2076.948730  -30166.66601      7.542333
     440           0       304.227783   2076.948730  -30500.00000      6.390626
     441           0       304.227783   2076.948730  -30833.33593      5.400756
     442           0       304.227783   2076.948730  -31166.66601      4.450259
     443           0       304.227783   2076.948730  -31500.00000      3.583487
     444           0       304.227783   2076.948730  -31833.33203      2.804008
     445           0       304.227783   2076.948730  -32166.66796      2.140345
     446           0       304.227783   2076.948730  -32500.00195      1.650043
     447           0       304.227783   2076.948730  -32833.33593      1.427384
     448           0       304.227783   2076.948730  -33166.66796      1.504840
     449           0       304.227783   2076.948730  -33500.00000      1.838904
     450           0       304.227783   2076.948730  -33833.33593      2.170341
     451           0       182.949219   2091.124023  -29166.66601     10.092582
     452           0       182.949219   2091.124023  -29500.00000     10.222689
     453           0       182.949219   2091.124023  -29833.33203      8.423959
     454           0       182.949219   2091.124023  -30166.66601      7.485295
     455           0       182.949219   2091.124023  -30500.00000      6.326663
     456           0       182.949219   2091.124023  -30833.33593      5.317347
     457           0       182.949219   2091.124023  -31166.66601      4.346334
     458           0       182.949219   2091.124023  -31500.00000      3.446144
     459           0       182.949219   2091.124023  -31833.33203      2.622871
     460           0       182.949219   2091.124023  -32166.66796      1.899179
     461           0       182.949219   2091.124023  -32500.00195      1.343186
     462           0       182.949219   2091.124023  -32833.33593      1.110026
     463           0       182.949219   2091.124023  -33166.66796      1.277471
     464           0       182.949219   2091.124023  -33500.00000      1.730474
     465           0       182.949219   2091.124023  -33833.33593      2.139980
     466           0        61.051674   2098.223633  -29166.66601     10.022503
     467           0        61.051674   2098.223633  -29500.00000     10.161922
     468           0        61.051674   2098.223633  -29833.33203      8.365560
     469           0        61.051674   2098.223633  -30166.66601      7.424960
     470           0        61.051674   2098.223633  -30500.00000      6.267635
     471           0        61.051674   2098.223633  -30833.33593      5.251643
     472           0        61.051674   2098.223633  -31166.66601      4.272498
     473           0        61.051674   2098.223633  -31500.00000      3.355621
     474           0        61.051674   2098.223633  -31833.33203      2.507411
     475           0        61.051674   2098.223633  -32166.66796      1.743975
     476           0        61.051674   2098.223633  -32500.00195      1.133492
     477           0        61.051674   2098.223633  -32833.33593      0.886431
     478           0        61.051674   2098.223633  -33166.66796      1.135016
     479           0        61.051674   2098.223633  -33500.00000      1.670949
     480           0        61.051674   2098.223633  -33833.33593      2.125707
     481           0       -61.052467   2098.223633  -29166.66601      9.970656
     482           0       -61.052467   2098.223633  -29500.00000     10.109966
     483           0       -61.052467   2098.223633  -29833.33203      8.316721
     484           0       -61.052467   2098.223633  -30166.66601      7.377654
     485           0       -61.052467   2098.223633  -30500.00000      6.222202
     486           0       -61.052467   2098.223633  -30833.33593      5.207775
     487           0       -61.052467   2098.223633  -31166.66601      4.229946
     488           0       -61.052467   2098.223633  -31500.00000      3.313977
     489           0       -61.052467   2098.223633  -31833.33203      2.466049
     490           0       -61.052467   2098.223633  -32166.66796      1.702030
     491           0       -61.052467   2098.223633  -32500.00195      1.091466
     492           0       -61.052467   2098.223633  -32833.33593      0.856934
     493           0       -61.052467   2098.223633  -33166.66796      1.126628
     494           0       -61.052467   2098.223633  -33500.00000      1.673517
     495           0       -61.052467   2098.223633  -33833.33593      2.130974
     496           0      -182.950089   2091.124023  -29166.66601      9.938005
     497           0      -182.950089   2091.124023  -29500.00000     10.067609
     498           0      -182.950089   2091.124023  -29833.33203      8.278324
     499           0      -182.950089   2091.124023  -30166.66601      7.344276
     500           0      -182.950089   2091.124023  -30500.00000      6.191426
     501           0      -182.950089   2091.124023  -30833.33593      5.187027
     502           0      -182.950089   2091.124023  -31166.66601      4.220407
     503           0      -182.950089   2091.124023  -31500.00000      3.323775
     504           0      -182.950089   2091.124023  -31833.33203      2.503087
     505           0      -182.950089   2091.124023  -32166.66796      1.781663
     506           0      -182.950089   2091.124023  -32500.00195      1.233926
     507           0      -182.950089   2091.124023  -32833.33593      1.036693
     508           0      -182.950089   2091.124023  -33166.66796      1.252956
     509           0      -182.950089   2091.124023  -33500.00000      1.735817
     510           0      -182.950089   2091.124023  -33833.33593      2.153830
     511           0      -304.228607   2076.948730  -29166.66601      9.887780
     512           0      -304.228607   2076.948730  -29500.00000     10.001410
     513           0      -304.228607   2076.948730  -29833.33203      8.229416
     514           0      -304.228607   2076.948730  -30166.66601      7.310370
     515           0      -304.228607   2076.948730  -30500.00000      6.168839
     516           0      -304.228607   2076.948730  -30833.33593      5.187892
     517           0      -304.228607   2076.948730  -31166.66601      4.246087
     518           0      -304.228607   2076.948730  -31500.00000      3.387617
     519           0      -304.228607   2076.948730  -31833.33203      2.616894
     520           0      -304.228607   2076.948730  -32166.66796      1.965265
     521           0      -304.228607   2076.948730  -32500.00195      1.499502
     522           0      -304.228607   2076.948730  -32833.33593      1.328001
     523           0      -304.228607   2076.948730  -33166.66796      1.464064
     524           0      -304.228607   2076.948730  -33500.00000      1.840705
     525           0      -304.228607   2076.948730  -33833.33593      2.187184
     526           0      -424.477692   2055.745361  -29166.66601      9.753581
     527           0      -424.477692   2055.745361  -29500.00000      9.851129
     528           0      -424.477692   2055.745361  -29833.33203      8.132054
     529           0      -424.477692   2055.745361  -30166.66601      7.249187
     530           0      -424.477692   2055.745361  -30500.00000      6.141638
     531           0      -424.477692   2055.745361  -30833.33593      5.205664
     532           0      -424.477692   2055.745361  -31166.66601      4.308105
     533           0      -424.477692   2055.745361  -31500.00000      3.506080
     534           0      -424.477692   2055.745361  -31833.33203      2.799818
     535           0      -424.477692   2055.745361  -32166.66796      2.222414
     536           0      -424.477692   2055.745361  -32500.00195      1.821807
     537           0      -424.477692   2055.745361  -32833.33593      1.652094
     538           0      -424.477692   2055.745361  -33166.66796      1.707005
     539           0      -424.477692   2055.745361  -33500.00000      1.964750
     540           0      -424.477692   2055.745361  -33833.33593      2.220077
     541           0      -543.290527   2027.586182  -29166.66601      9.454530
     542           0      -543.290527   2027.586182  -29500.00000      9.542964
     543           0      -543.290527   2027.586182  -29833.33203      7.939747
     544           0      -543.290527   2027.586182  -30166.66601      7.126813
     545           0      -543.290527   2027.586182  -30500.00000      6.092051
     546           0      -543.290527   2027.586182  -30833.33593      5.230836
     547           0      -543.290527   2027.586182  -31166.66601      4.402706
     548           0      -543.290527   2027.586182  -31500.00000      3.673650
     549           0      -543.290527   2027.586182  -31833.33203      3.038082
     550           0      -543.290527   2027.586182  -32166.66796      2.524032
     551           0      -543.290527   2027.586182  -32500.00195      2.162003
     552           0      -543.290527   2027.586182  -32833.33593      1.972634
     553           0      -543.290527   2027.586182  -33166.66796      1.948087
     554           0      -543.290527   2027.586182  -33500.00000      2.086948
     555           0      -543.290527   2027.586182  -33833.33593      2.240652
     556           0      -660.265015   1992.566284  -29166.66601      8.916286
     557           0      -660.265015   1992.566284  -29500.00000      9.008024
     558           0      -660.265015   1992.566284  -29833.33203      7.607944
     559           0      -660.265015   1992.566284  -30166.66601      6.909022
     560           0      -660.265015   1992.566284  -30500.00000      5.998535
     561           0      -660.265015   1992.566284  -30833.33593      5.247120
     562           0      -660.265015   1992.566284  -31166.66601      4.516616
     563           0      -660.265015   1992.566284  -31500.00000      3.874723
     564           0      -660.265015   1992.566284  -31833.33203      3.311276
     565           0      -660.265015   1992.566284  -32166.66796      2.845993
     566           0      -660.265015   1992.566284  -32500.00195      2.500172
     567           0      -660.265015   1992.566284  -32833.33593      2.275484
     568           0      -660.265015   1992.566284  -33166.66796      2.171626
     569           0      -660.265015   1992.566284  -33500.00000      2.194624
     570           0      -660.265015   1992.566284  -33833.33593      2.239711
     571           0      -775.005371   1950.804199  -29166.66601      8.101035
     572           0      -775.005371   1950.804199  -29500.00000      8.208824
     573           0      -775.005371   1950.804199  -29833.33203      7.110967
     574           0      -775.005371   1950.804199  -30166.66601      6.573301
     575           0      -775.005371   1950.804199  -30500.00000      5.842241
     576           0      -775.005371   1950.804199  -30833.33593      5.234870
     577           0      -775.005371   1950.804199  -31166.66601      4.628938
     578           0      -775.005371   1950.804199  -31500.00000      4.086205
     579           0      -775.005371   1950.804199  -31833.33203      3.596229
     580           0      -775.005371   1950.804199  -32166.66796      3.170185
     581           0      -775.005371   1950.804199  -32500.00195      2.828356
     582           0      -775.005371   1950.804199  -32833.33593      2.561101
     583           0      -775.005371   1950.804199  -33166.66796      2.379598
     584           0      -775.005371   1950.804199  -33500.00000      2.292239
     585           0      -775.005371   1950.804199  -33833.33593      2.218662
     586           0      -887.123413   1902.441162  -29166.66601      7.050815
     587           0      -887.123413   1902.441162  -29500.00000      7.178167
     588           0      -887.123413   1902.441162  -29833.33203      6.466676
     589           0      -887.123413   1902.441162  -30166.66601      6.128019
     590           0      -887.123413   1902.441162  -30500.00000      5.620204
     591           0      -887.123413   1902.441162  -30833.33593      5.181901
     592           0      -887.123413   1902.441162  -31166.66601      4.720449
     593           0      -887.123413   1902.441162  -31500.00000      4.285902
     594           0      -887.123413   1902.441162  -31833.33203      3.872687
     595           0      -887.123413   1902.441162  -32166.66796      3.485106
     596           0      -887.123413   1902.441162  -32500.00195      3.147098
     597           0      -887.123413   1902.441162  -32833.33593      2.842832
     598           0      -887.123413   1902.441162  -33166.66796      2.593434
     599           0      -887.123413   1902.441162  -33500.00000      2.414438
     600           0      -887.123413   1902.441162  -33833.33593      2.207691
     601           0      -996.239624   1847.640869  -29166.66601      5.958108
     602           0      -996.239624   1847.640869  -29500.00000      6.084998
     603           0      -996.239624   1847.640869  -29833.33203      5.774973
     604           0      -996.239624   1847.640869  -30166.66601      5.643211
     605           0      -996.239624   1847.640869  -30500.00000      5.367291
     606           0      -996.239624   1847.640869  -30833.33593      5.102156
     607           0      -996.239624   1847.640869  -31166.66601      4.788474
     608           0      -996.239624   1847.640869  -31500.00000      4.463611
     609           0      -996.239624   1847.640869  -31833.33203      4.128871
     610           0      -996.239624   1847.640869  -32166.66796      3.786198
     611           0      -996.239624   1847.640869  -32500.00195      3.462989
     612           0      -996.239624   1847.640869  -32833.33593      3.145026
     613           0      -996.239624   1847.640869  -33166.66796      2.854798
     614           0      -996.239624   1847.640869  -33500.00000      2.640249
     615           0      -996.239624   1847.640869  -33833.33593      2.297364
     616           0     -1101.984863   1786.588867  -29166.66601      5.249404
     617           0     -1101.984863   1786.588867  -29500.00000      5.323788
     618           0     -1101.984863   1786.588867  -29833.33203      5.261593
     619           0     -1101.984863   1786.588867  -30166.66601      5.282331
     620           0     -1101.984863   1786.588867  -30500.00000      5.175951
     621           0     -1101.984863   1786.588867  -30833.33593      5.049435
     622           0     -1101.984863   1786.588867  -31166.66601      4.854258
     623           0     -1101.984863   1786.588867  -31500.00000      4.622536
     624           0     -1101.984863   1786.588867  -31833.33203      4.357569
     625           0     -1101.984863   1786.588867  -32166.66796      4.067586
     626           0     -1101.984863   1786.588867  -32500.00195      3.778594
     627           0     -1101.984863   1786.588867  -32833.33593      3.491570
     628           0     -1101.984863   1786.588867  -33166.66796      3.213902
     629           0     -1101.984863   1786.588867  -33500.00000      3.084927
     630           0     -1101.984863   1786.588867  -33833.33593      2.649843
     631           0     -1204.001465   1719.491333  -29166.66601      5.415665
     632           0     -1204.001465   1719.491333  -29500.00000      5.412076
     633           0     -1204.001465   1719.491333  -29833.33203      5.237545
     634           0     -1204.001465   1719.491333  -30166.66601      5.275263
     635           0     -1204.001465   1719.491333  -30500.00000      5.182563
     636           0     -1204.001465   1719.491333  -30833.33593      5.104336
     637           0     -1204.001465   1719.491333  -31166.66601      4.950719
     638           0     -1204.001465   1719.491333  -31500.00000      4.764528
     639           0     -1204.001465   1719.491333  -31833.33203      4.540452
     640           0     -1204.001465   1719.491333  -32166.66796      4.304188
     641           0     -1204.001465   1719.491333  -32500.00195      4.074046
     642           0     -1204.001465   1719.491333  -32833.33593      3.885269
     643           0     -1204.001465   1719.491333  -33166.66796      3.704855
     644           0     -1204.001465   1719.491333  -33500.00000      3.850083
     645           0     -1204.001465   1719.491333  -33833.33593      3.422655
     646           0     -1301.944092   1646.575928  -29166.66601      6.382910
     647           0     -1301.944092   1646.575928  -29500.00000      6.380837
     648           0     -1301.944092   1646.575928  -29833.33203      5.816791
     649           0     -1301.944092   1646.575928  -30166.66601      5.730490
     650           0     -1301.944092   1646.575928  -30500.00000      5.461757
     651           0     -1301.944092   1646.575928  -30833.33593      5.299500
     652           0     -1301.944092   1646.575928  -31166.66601      5.068536
     653           0     -1301.944092   1646.575928  -31500.00000      4.845161
     654           0     -1301.944092   1646.575928  -31833.33203      4.608019
     655           0     -1301.944092   1646.575928  -32166.66796      4.413073
     656           0     -1301.944092   1646.575928  -32500.00195      4.270926
     657           0     -1301.944092   1646.575928  -32833.33593      4.275066
     658           0     -1301.944092   1646.575928  -33166.66796      4.310527
     659           0     -1301.944092   1646.575928  -33500.00000      4.958592
     660           0     -1301.944092   1646.575928  -33833.33593      4.657798
     661           0     -1395.481201   1568.088745  -29166.66601      7.542209
     662           0     -1395.481201   1568.088745  -29500.00000      7.657389
     663           0     -1395.481201   1568.088745  -29833.33203      6.725187
     664           0     -1395.481201   1568.088745  -30166.66601      6.473304
     665           0     -1395.481201   1568.088745  -30500.00000      5.920125
     666           0     -1395.481201   1568.088745  -30833.33593      5.551407
     667           0     -1395.481201   1568.088745  -31166.66601      5.114991
     668           0     -1395.481201   1568.088745  -31500.00000      4.742795
     669           0     -1395.481201   1568.088745  -31833.33203      4.411319
     670           0     -1395.481201   1568.088745  -32166.66796      4.225128
     671           0     -1395.481201   1568.088745  -32500.00195      4.213973
     672           0     -1395.481201   1568.088745  -32833.33593      4.551274
     673           0     -1395.481201   1568.088745  -33166.66796      4.960416
     674           0     -1395.481201   1568.088745  -33500.00000      6.340437
     675           0     -1395.481201   1568.088745  -33833.33593      6.274819
     676           0     -1484.296631   1484.295654  -29166.66601      8.311174
     677           0     -1484.296631   1484.295654  -29500.00000      8.628253
     678           0     -1484.296631   1484.295654  -29833.33203      7.522989
     679           0     -1484.296631   1484.295654  -30166.66601      7.168315
     680           0     -1484.296631   1484.295654  -30500.00000      6.352872
     681           0     -1484.296631   1484.295654  -30833.33593      5.717366
     682           0     -1484.296631   1484.295654  -31166.66601      4.974701
     683           0     -1484.296631   1484.295654  -31500.00000      4.315331
     684           0     -1484.296631   1484.295654  -31833.33203      3.758981
     685           0     -1484.296631   1484.295654  -32166.66796      3.512551
     686           0     -1484.296631   1484.295654  -32500.00195      3.721025
     687           0     -1484.296631   1484.295654  -32833.33593      4.616906
     688           0     -1484.296631   1484.295654  -33166.66796      5.579385
     689           0     -1484.296631   1484.295654  -33500.00000      7.852268
     690           0     -1484.296631   1484.295654  -33833.33593      8.097536
     691           0     -1568.089478   1395.480347  -29166.66601      8.298261
     692           0     -1568.089478   1395.480347  -29500.00000      8.845917
     693           0     -1568.089478   1395.480347  -29833.33203      7.827789
     694           0     -1568.089478   1395.480347  -30166.66601      7.514750
     695           0     -1568.089478   1395.480347  -30500.00000      6.602314
     696           0     -1568.089478   1395.480347  -30833.33593      5.758615
     697           0     -1568.089478   1395.480347  -31166.66601      4.696161
     698           0     -1568.089478   1395.480347  -31500.00000      3.601975
     699           0     -1568.089478   1395.480347  -31833.33203      2.558349
     700           0     -1568.089478   1395.480347  -32166.66796      2.046590
     701           0     -1568.089478   1395.480347  -32500.00195      2.736501
     702           0     -1568.089478   1395.480347  -32833.33593      4.526975
     703           0     -1568.089478   1395.480347  -33166.66796      6.138428
     704           0     -1568.089478   1395.480347  -33500.00000      9.279138
     705           0     -1568.089478   1395.480347  -33833.33593      9.844504
     706           0     -1646.576416   1301.943115  -29166.66601      7.329618
     707           0     -1646.576416   1301.943115  -29500.00000      8.059279
     708           0     -1646.576416   1301.943115  -29833.33203      7.426955
     709           0     -1646.576416   1301.943115  -30166.66601      7.388347
     710           0     -1646.576416   1301.943115  -30500.00000      6.728556
     711           0     -1646.576416   1301.943115  -30833.33593      5.965362
     712           0     -1646.576416   1301.943115  -31166.66601      4.852269
     713           0     -1646.576416   1301.943115  -31500.00000      3.492507
     714           0     -1646.576416   1301.943115  -31833.33203      1.926200
     715           0     -1646.576416   1301.943115  -32166.66796      0.539740
     716           0     -1646.576416   1301.943115  -32500.00195      2.111573
     717           0     -1646.576416   1301.943115  -32833.33593      4.676648
     718           0     -1646.576416   1301.943115  -33166.66796      6.684036
     719           0     -1646.576416   1301.943115  -33500.00000     10.345407
     720           0     -1646.576416   1301.943115  -33833.33593     11.132315
     721           0     -1719.492065   1204.000610  -29166.66601      5.597849
     722           0     -1719.492065   1204.000610  -29500.00000      6.347653
     723           0     -1719.492065   1204.000610  -29833.33203      6.450052
     724           0     -1719.492065   1204.000610  -30166.66601      6.991365
     725           0     -1719.492065   1204.000610  -30500.00000      7.089440
     726           0     -1719.492065   1204.000610  -30833.33593      6.928215
     727           0     -1719.492065   1204.000610  -31166.66601      6.358299
     728           0     -1719.492065   1204.000610  -31500.00000      5.451124
     729           0     -1719.492065   1204.000610  -31833.33203      4.392653
     730           0     -1719.492065   1204.000610  -32166.66796      3.644020
     731           0     -1719.492065   1204.000610  -32500.00195      3.830882
     732           0     -1719.492065   1204.000610  -32833.33593      5.603797
     733           0     -1719.492065   1204.000610  -33166.66796      7.282950
     734           0     -1719.492065   1204.000610  -33500.00000     10.752534
     735           0     -1719.492065   1204.000610  -33833.33593     11.535391
     736           0     -1786.589355   1101.984009  -29166.66601      4.423313
     737           0     -1786.589355   1101.984009  -29500.00000      4.838501
     738           0     -1786.589355   1101.984009  -29833.33203      5.876506
     739           0     -1786.589355   1101.984009  -30166.66601      7.074953
     740           0     -1786.589355   1101.984009  -30500.00000      8.177271
     741           0     -1786.589355   1101.984009  -30833.33593      8.909601
     742           0     -1786.589355   1101.984009  -31166.66601      9.179237
     743           0     -1786.589355   1101.984009  -31500.00000      8.915270
     744           0     -1786.589355   1101.984009  -31833.33203      8.172604
     745           0     -1786.589355   1101.984009  -32166.66796      7.340027
     746           0     -1786.589355   1101.984009  -32500.00195      6.703566
     747           0     -1786.589355   1101.984009  -32833.33593      7.198841
     748           0     -1786.589355   1101.984009  -33166.66796      7.870348
     749           0     -1786.589355   1101.984009  -33500.00000     10.262697
     750           0     -1786.589355   1101.984009  -33833.33593     10.726626
     751           0     -1847.641357    996.238708  -29166.66601      6.538500
     752           0     -1847.641357    996.238708  -29500.00000      6.680785
     753           0     -1847.641357    996.238708  -29833.33203      7.666657
     754           0     -1847.641357    996.238708  -30166.66601      8.809828
     755           0     -1847.641357    996.238708  -30500.00000     10.340853
     756           0     -1847.641357    996.238708  -30833.33593     11.630984
     757           0     -1847.641357    996.238708  -31166.66601     12.520443
     758           0     -1847.641357    996.238708  -31500.00000     12.689489
     759           0     -1847.641357    996.238708  -31833.33203     11.985038
     760           0     -1847.641357    996.238708  -32166.66796     10.802966
     761           0     -1847.641357    996.238708  -32500.00195      9.390147
     762           0     -1847.641357    996.238708  -32833.33593      8.711776
     763           0     -1847.641357    996.238708  -33166.66796      8.186260
     764           0     -1847.641357    996.238708  -33500.00000      8.928682
     765           0     -1847.641357    996.238708  -33833.33593      8.834304
     766           0     -1902.441650    887.122437  -29166.66601     11.290036
     767           0     -1902.441650    887.122437  -29500.00000     11.850608
     768           0     -1902.441650    887.122437  -29833.33203     12.153117
     769           0     -1902.441650    887.122437  -30166.66601     12.712721
     770           0     -1902.441650    887.122437  -30500.00000     13.823636
     771           0     -1902.441650    887.122437  -30833.33593     14.896946
     772           0     -1902.441650    887.122437  -31166.66601     15.729431
     773           0     -1902.441650    887.122437  -31500.00000     15.796623
     774           0     -1902.441650    887.122437  -31833.33203     14.814144
     775           0     -1902.441650    887.122437  -32166.66796     13.106818
     776           0     -1902.441650    887.122437  -32500.00195     10.938239
     777           0     -1902.441650    887.122437  -32833.33593      9.284045
     778           0     -1902.441650    887.122437  -33166.66796      7.925087
     779           0     -1902.441650    887.122437  -33500.00000      7.696871
     780           0     -1902.441650    887.122437  -33833.33593      7.514835
     781           0     -1950.804565    775.004395  -29166.66601     17.374052
     782           0     -1950.804565    775.004395  -29500.00000     18.696754
     783           0     -1950.804565    775.004395  -29833.33203     18.423075
     784           0     -1950.804565    775.004395  -30166.66601     18.540947
     785           0     -1950.804565    775.004395  -30500.00000     18.925802
     786           0     -1950.804565    775.004395  -30833.33593     19.124695
     787           0     -1950.804565    775.004395  -31166.66601     19.023409
     788           0     -1950.804565    775.004395  -31500.00000     18.107136
     789           0     -1950.804565    775.004395  -31833.33203     16.233562
     790           0     -1950.804565    775.004395  -32166.66796     13.608127
     791           0     -1950.804565    775.004395  -32500.00195     10.595677
     792           0     -1950.804565    775.004395  -32833.33593      8.190998
     793           0     -1950.804565    775.004395  -33166.66796      7.064214
     794           0     -1950.804565    775.004395  -33500.00000      8.848512
     795           0     -1950.804565    775.004395  -33833.33593     10.087914
     796           0     -1992.566650    660.264038  -29166.66601     24.480913
     797           0     -1992.566650    660.264038  -29500.00000     26.682350
     798           0     -1992.566650    660.264038  -29833.33203     25.897459
     799           0     -1992.566650    660.264038  -30166.66601     25.912420
     800           0     -1992.566650    660.264038  -30500.00000     25.825220
     801           0     -1992.566650    660.264038  -30833.33593     25.264856
     802           0     -1992.566650    660.264038  -31166.66601     24.100590
     803           0     -1992.566650    660.264038  -31500.00000     21.734814
     804           0     -1992.566650    660.264038  -31833.33203     18.166054
     805           0     -1992.566650    660.264038  -32166.66796     13.484155
     806           0     -1992.566650    660.264038  -32500.00195      8.572551
     807           0     -1992.566650    660.264038  -32833.33593      4.915451
     808           0     -1992.566650    660.264038  -33166.66796      6.371764
     809           0     -1992.566650    660.264038  -33500.00000     12.893354
     810           0     -1992.566650    660.264038  -33833.33593     15.803331
     811           0     -2027.586426    543.289490  -29166.66601     32.600857
     812           0     -2027.586426    543.289490  -29500.00000     35.613979
     813           0     -2027.586426    543.289490  -29833.33203     34.188759
     814           0     -2027.586426    543.289490  -30166.66601     34.383553
     815           0     -2027.586426    543.289490  -30500.00000     34.360077
     816           0     -2027.586426    543.289490  -30833.33593     33.954029
     817           0     -2027.586426    543.289490  -31166.66601     32.746960
     818           0     -2027.586426    543.289490  -31500.00000     29.765251
     819           0     -2027.586426    543.289490  -31833.33203     24.821795
     820           0     -2027.586426    543.289490  -32166.66796     17.700043
     821           0     -2027.586426    543.289490  -32500.00195      9.621819
     822           0     -2027.586426    543.289490  -32833.33593      1.820538
     823           0     -2027.586426    543.289490  -33166.66796      7.523492
     824           0     -2027.586426    543.289490  -33500.00000     17.819361
     825           0     -2027.586426    543.289490  -33833.33593     21.902590
     826           0     -2055.745605    424.476654  -29166.66601     41.759647
     827           0     -2055.745605    424.476654  -29500.00000     45.373611
     828           0     -2055.745605    424.476654  -29833.33203     42.952148
     829           0     -2055.745605    424.476654  -30166.66601     43.444679
     830           0     -2055.745605    424.476654  -30500.00000     43.929295
     831           0     -2055.745605    424.476654  -30833.33593     44.411640
     832           0     -2055.745605    424.476654  -31166.66601     43.852615
     833           0     -2055.745605    424.476654  -31500.00000     41.147804
     834           0     -2055.745605    424.476654  -31833.33203     36.109406
     835           0     -2055.745605    424.476654  -32166.66796     28.314186
     836           0     -2055.745605    424.476654  -32500.00195     18.858246
     837           0     -2055.745605    424.476654  -32833.33593     10.487980
     838           0     -2055.745605    424.476654  -33166.66796     11.333471
     839           0     -2055.745605    424.476654  -33500.00000     21.851681
     840           0     -2055.745605    424.476654  -33833.33593     26.470497
     841           0     -2076.948730    304.227539  -29166.66601     51.886120
     842           0     -2076.948730    304.227539  -29500.00000     55.813141
     843           0     -2076.948730    304.227539  -29833.33203     51.851891
     844           0     -2076.948730    304.227539  -30166.66601     52.451939
     845           0     -2076.948730    304.227539  -30500.00000     53.116592
     846           0     -2076.948730    304.227539  -30833.33593     53.722404
     847           0     -2076.948730    304.227539  -31166.66601     53.055977
     848           0     -2076.948730    304.227539  -31500.00000     50.704113
     849           0     -2076.948730    304.227539  -31833.33203     46.657463
     850           0     -2076.948730    304.227539  -32166.66796     40.377979
     851           0     -2076.948730    304.227539  -32500.00195     31.814447
     852           0     -2076.948730    304.227539  -32833.33593     22.470226
     853           0     -2076.948730    304.227539  -33166.66796     17.901697
     854           0     -2076.948730    304.227539  -33500.00000     24.141052
     855           0     -2076.948730    304.227539  -33833.33593     28.281206
     856           0     -2091.124023    182.948975  -29166.66601     62.712456
     857           0     -2091.124023    182.948975  -29500.00000     66.636772
     858           0     -2091.124023    182.948975  -29833.33203     60.358643
     859           0     -2091.124023    182.948975  -30166.66601     60.111080
     860           0     -2091.124023    182.948975  -30500.00000     58.805328
     861           0     -2091.124023    182.948975  -30833.33593     56.954861
     862           0     -2091.124023    182.948975  -31166.66601     54.611073
     863           0     -2091.124023    182.948975  -31500.00000     52.337120
     864           0     -2091.124023    182.948975  -31833.33203     49.998394
     865           0     -2091.124023    182.948975  -32166.66796     47.098732
     866           0     -2091.124023    182.948975  -32500.00195     42.519112
     867           0     -2091.124023    182.948975  -32833.33593     35.388264
     868           0     -2091.124023    182.948975  -33166.66796     27.541866
     869           0     -2091.124023    182.948975  -33500.00000     25.908810
     870           0     -2091.124023    182.948975  -33833.33593     27.469408
     871           0     -2098.223633     61.051418  -29166.66601     73.632286
     872           0     -2098.223633     61.051418  -29500.00000     77.055435
     873           0     -2098.223633     61.051418  -29833.33203     67.167877
     874           0     -2098.223633     61.051418  -30166.66601     63.334274
     875           0     -2098.223633     61.051418  -30500.00000     56.046967
     876           0     -2098.223633     61.051418  -30833.33593     49.037392
     877           0     -2098.223633     61.051418  -31166.66601     44.192802
     878           0     -2098.223633     61.051418  -31500.00000     41.856194
     879           0     -2098.223633     61.051418  -31833.33203     41.563370
     880           0     -2098.223633     61.051418  -32166.66796     42.686817
     881           0     -2098.223633     61.051418  -32500.00195     43.807522
     882           0     -2098.223633     61.051418  -32833.33593     43.632221
     883           0     -2098.223633     61.051418  -33166.66796     38.539394
     884           0     -2098.223633     61.051418  -33500.00000     31.296820
     885           0     -2098.223633     61.051418  -33833.33593     27.464836
     886           0     -2098.223633    -61.052704  -29166.66601     83.617165
     887           0     -2098.223633    -61.052704  -29500.00000     84.933319
     888           0     -2098.223633    -61.052704  -29833.33203     69.282120
     889           0     -2098.223633    -61.052704  -30166.66601     57.250565
     890           0     -2098.223633    -61.052704  -30500.00000     41.776485
     891           0     -2098.223633    -61.052704  -30833.33593     30.974930
     892           0     -2098.223633    -61.052704  -31166.66601     25.531395
     893           0     -2098.223633    -61.052704  -31500.00000     24.885981
     894           0     -2098.223633    -61.052704  -31833.33203     25.763758
     895           0     -2098.223633    -61.052704  -32166.66796     28.431505
     896           0     -2098.223633    -61.052704  -32500.00195     31.512848
     897           0     -2098.223633    -61.052704  -32833.33593     38.159462
     898           0     -2098.223633    -61.052704  -33166.66796     43.841660
     899           0     -2098.223633    -61.052704  -33500.00000     41.777256
     900           0     -2098.223633    -61.052704  -33833.33593     34.716988
     901           0     -2091.123779   -182.950317  -29166.66601     89.408730
     902           0     -2091.123779   -182.950317  -29500.00000     87.125916
     903           0     -2091.123779   -182.950317  -29833.33203     62.514034
     904           0     -2091.123779   -182.950317  -30166.66601     45.622093
     905           0     -2091.123779   -182.950317  -30500.00000     36.120129
     906           0     -2091.123779   -182.950317  -30833.33593     37.293278
     907           0     -2091.123779   -182.950317  -31166.66601     41.262470
     908           0     -2091.123779   -182.950317  -31500.00000     43.047596
     909           0     -2091.123779   -182.950317  -31833.33203     42.764618
     910           0     -2091.123779   -182.950317  -32166.66796     37.539997
     911           0     -2091.123779   -182.950317  -32500.00195     29.697651
     912           0     -2091.123779   -182.950317  -32833.33593     19.680178
     913           0     -2091.123779   -182.950317  -33166.66796     29.349369
     914           0     -2091.123779   -182.950317  -33500.00000     48.594852
     915           0     -2091.123779   -182.950317  -33833.33593     48.319992
     916           0     -2076.948242   -304.228821  -29166.66601     87.071220
     917           0     -2076.948242   -304.228821  -29500.00000     79.462624
     918           0     -2076.948242   -304.228821  -29833.33203     65.235672
     919           0     -2076.948242   -304.228821  -30166.66601     66.389725
     920           0     -2076.948242   -304.228821  -30500.00000     76.085083
     921           0     -2076.948242   -304.228821  -30833.33593     82.832214
     922           0     -2076.948242   -304.228821  -31166.66601     87.327896
     923           0     -2076.948242   -304.228821  -31500.00000     89.425003
     924           0     -2076.948242   -304.228821  -31833.33203     86.794235
     925           0     -2076.948242   -304.228821  -32166.66796     82.765709
     926           0     -2076.948242   -304.228821  -32500.00195     70.702736
     927           0     -2076.948242   -304.228821  -32833.33593     56.263165
     928           0     -2076.948242   -304.228821  -33166.66796     25.009565
     929           0     -2076.948242   -304.228821  -33500.00000     32.912403
     930           0     -2076.948242   -304.228821  -33833.33593     55.318016
     931           0     -2055.882568   -423.897186  -29166.66601     71.194824
     932           0     -2055.882568   -423.897186  -29500.00000     97.244591
     933           0     -2055.882568   -423.897186  -29833.33203    120.710106
     934           0     -2055.882568   -423.897186  -30166.66601    125.493896
     935           0     -2055.882568   -423.897186  -30500.00000    131.643936
     936           0     -2055.882568   -423.897186  -30833.33593    134.363327
     937           0     -2055.882568   -423.897186  -31166.66601    134.858185
     938           0     -2055.882568   -423.897186  -31500.00000    135.087601
     939           0     -2055.882568   -423.897186  -31833.33203    133.233185
     940           0     -2055.882568   -423.897186  -32166.66796    131.083328
     941           0     -2055.882568   -423.897186  -32500.00195    126.481834
     942           0     -2055.882568   -423.897186  -32833.33593    118.145386
     943           0     -2055.882568   -423.897186  -33166.66796    108.388725
     944           0     -2055.882568   -423.897186  -33500.00000     65.891975
     945           0     -2055.882568   -423.897186  -33833.33593     37.396160
     946           0     -2028.065186   -541.566406  -29166.66601    146.917770
     947           0     -2028.065186   -541.566406  -29500.00000    214.221664
     948           0     -2028.065186   -541.566406  -29833.33203    202.050003
     949           0     -2028.065186   -541.566406  -30166.66601    189.026245
     950           0     -2028.065186   -541.566406  -30500.00000    180.903564
     951           0     -2028.065186   -541.566406  -30833.33593    173.988708
     952           0     -2028.065186   -541.566406  -31166.66601    168.394501
     953           0     -2028.065186   -541.566406  -31500.00000    166.487640
     954           0     -2028.065186   -541.566406  -31833.33203    164.951828
     955           0     -2028.065186   -541.566406  -32166.66796    168.329910
     956           0     -2028.065186   -541.566406  -32500.00195    171.674408
     957           0     -2028.065186   -541.566406  -32833.33593    182.077667
     958           0     -2028.065186   -541.566406  -33166.66796    189.605820
     959           0     -2028.065186   -541.566406  -33500.00000    215.537735
     960           0     -2028.065186   -541.566406  -33833.33593    151.417358
     961           0     -1992.907837   -659.121582  -29166.66601    140.926178
     962           0     -1992.907837   -659.121582  -29500.00000    206.830383
     963           0     -1992.907837   -659.121582  -29833.33203    199.754059
     964           0     -1992.907837   -659.121582  -30166.66601    189.382553
     965           0     -1992.907837   -659.121582  -30500.00000    183.534470
     966           0     -1992.907837   -659.121582  -30833.33593    178.495377
     967           0     -1992.907837   -659.121582  -31166.66601    174.111145
     968           0     -1992.907837   -659.121582  -31500.00000    173.264236
     969           0     -1992.907837   -659.121582  -31833.33203    172.099838
     970           0     -1992.907837   -659.121582  -32166.66796    175.574860
     971           0     -1992.907837   -659.121582  -32500.00195    178.355560
     972           0     -1992.907837   -659.121582  -32833.33593    187.559341
     973           0     -1992.907837   -659.121582  -33166.66796    193.415390
     974           0     -1992.907837   -659.121582  -33500.00000    215.475128
     975           0     -1992.907837   -659.121582  -33833.33593    149.828064
     976           0     -1950.803955   -775.005493  -29166.66601     70.606842
     977           0     -1950.803955   -775.005493  -29500.00000     87.593590
     978           0     -1950.803955   -775.005493  -29833.33203    110.998093
     979           0     -1950.803955   -775.005493  -30166.66601    117.929550
     980           0     -1950.803955   -775.005493  -30500.00000    125.076088
     981           0     -1950.803955   -775.005493  -30833.33593    129.335022
     982           0     -1950.803955   -775.005493  -31166.66601    130.625381
     983           0     -1950.803955   -775.005493  -31500.00000    131.612869
     984           0     -1950.803955   -775.005493  -31833.33203    130.169861
     985           0     -1950.803955   -775.005493  -32166.66796    128.079559
     986           0     -1950.803955   -775.005493  -32500.00195    123.338493
     987           0     -1950.803955   -775.005493  -32833.33593    114.336235
     988           0     -1950.803955   -775.005493  -33166.66796    103.613388
     989           0     -1950.803955   -775.005493  -33500.00000     60.231861
     990           0     -1950.803955   -775.005493  -33833.33593     39.070015
     991           0     -1902.441040   -887.123535  -29166.66601     86.738869
     992           0     -1902.441040   -887.123535  -29500.00000     76.157906
     993           0     -1902.441040   -887.123535  -29833.33203     57.615566
     994           0     -1902.441040   -887.123535  -30166.66601     56.328758
     995           0     -1902.441040   -887.123535  -30500.00000     66.119286
     996           0     -1902.441040   -887.123535  -30833.33593     73.351624
     997           0     -1902.441040   -887.123535  -31166.66601     78.445869
     998           0     -1902.441040   -887.123535  -31500.00000     81.039886
     999           0     -1902.441040   -887.123535  -31833.33203     78.893997
    1000           0     -1902.441040   -887.123535  -32166.66796     75.228653
    1001           0     -1902.441040   -887.123535  -32500.00195     63.593807
    1002           0     -1902.441040   -887.123535  -32833.33593     49.528118
    1003           0     -1902.441040   -887.123535  -33166.66796     18.882711
    1004           0     -1902.441040   -887.123535  -33500.00000     34.945805
    1005           0     -1902.441040   -887.123535  -33833.33593     55.122936
    1006           0     -1847.640625   -996.239746  -29166.66601     86.652893
    1007           0     -1847.640625   -996.239746  -29500.00000     84.166313
    1008           0     -1847.640625   -996.239746  -29833.33203     60.996117
    1009           0     -1847.640625   -996.239746  -30166.66601     41.749367
    1010           0     -1847.640625   -996.239746  -30500.00000     28.767834
    1011           0     -1847.640625   -996.239746  -30833.33593     27.991739
    1012           0     -1847.640625   -996.239746  -31166.66601     31.800467
    1013           0     -1847.640625   -996.239746  -31500.00000     33.949898
    1014           0     -1847.640625   -996.239746  -31833.33203     34.428402
    1015           0     -1847.640625   -996.239746  -32166.66796     30.131748
    1016           0     -1847.640625   -996.239746  -32500.00195     24.039524
    1017           0     -1847.640625   -996.239746  -32833.33593     18.341364
    1018           0     -1847.640625   -996.239746  -33166.66796     31.350767
    1019           0     -1847.640625   -996.239746  -33500.00000     47.874020
    1020           0     -1847.640625   -996.239746  -33833.33593     45.784603
    1021           0     -1786.588501  -1101.985107  -29166.66601     78.738457
    1022           0     -1786.588501  -1101.985107  -29500.00000     80.209412
    1023           0     -1786.588501  -1101.985107  -29833.33203     67.697456
    1024           0     -1786.588501  -1101.985107  -30166.66601     56.609119
    1025           0     -1786.588501  -1101.985107  -30500.00000     41.867886
    1026           0     -1786.588501  -1101.985107  -30833.33593     31.007973
    1027           0     -1786.588501  -1101.985107  -31166.66601     25.011692
    1028           0     -1786.588501  -1101.985107  -31500.00000     23.859369
    1029           0     -1786.588501  -1101.985107  -31833.33203     24.973303
    1030           0     -1786.588501  -1101.985107  -32166.66796     28.301239
    1031           0     -1786.588501  -1101.985107  -32500.00195     32.083118
    1032           0     -1786.588501  -1101.985107  -32833.33593     38.677090
    1033           0     -1786.588501  -1101.985107  -33166.66796     42.858154
    1034           0     -1786.588501  -1101.985107  -33500.00000     38.914444
    1035           0     -1786.588501  -1101.985107  -33833.33593     31.382460
    1036           0     -1719.491211  -1204.001587  -29166.66601     67.351051
    1037           0     -1719.491211  -1204.001587  -29500.00000     70.787704
    1038           0     -1719.491211  -1204.001587  -29833.33203     63.813923
    1039           0     -1719.491211  -1204.001587  -30166.66601     61.475872
    1040           0     -1719.491211  -1204.001587  -30500.00000     55.618618
    1041           0     -1719.491211  -1204.001587  -30833.33593     49.636440
    1042           0     -1719.491211  -1204.001587  -31166.66601     45.292446
    1043           0     -1719.491211  -1204.001587  -31500.00000     43.004025
    1044           0     -1719.491211  -1204.001587  -31833.33203     42.412601
    1045           0     -1719.491211  -1204.001587  -32166.66796     42.943684
    1046           0     -1719.491211  -1204.001587  -32500.00195     43.244373
    1047           0     -1719.491211  -1204.001587  -32833.33593     41.798737
    1048           0     -1719.491211  -1204.001587  -33166.66796     35.447575
    1049           0     -1719.491211  -1204.001587  -33500.00000     27.881014
    1050           0     -1719.491211  -1204.001587  -33833.33593     24.910940
    1051           0     -1646.575562  -1301.944092  -29166.66601     55.764145
    1052           0     -1646.575562  -1301.944092  -29500.00000     59.493187
    1053           0     -1646.575562  -1301.944092  -29833.33203     55.500542
    1054           0     -1646.575562  -1301.944092  -30166.66601     56.482147
    1055           0     -1646.575562  -1301.944092  -30500.00000     56.410007
    1056           0     -1646.575562  -1301.944092  -30833.33593     55.452763
    1057           0     -1646.575562  -1301.944092  -31166.66601     53.607704
    1058           0     -1646.575562  -1301.944092  -31500.00000     51.471046
    1059           0     -1646.575562  -1301.944092  -31833.33203     48.904854
    1060           0     -1646.575562  -1301.944092  -32166.66796     45.460327
    1061           0     -1646.575562  -1301.944092  -32500.00195     40.046143
    1062           0     -1646.575562  -1301.944092  -32833.33593     31.956911
    1063           0     -1646.575562  -1301.944092  -33166.66796     23.662497
    1064           0     -1646.575562  -1301.944092  -33500.00000     23.315756
    1065           0     -1646.575562  -1301.944092  -33833.33593     25.937551
    1066           0     -1568.088623  -1395.481323  -29166.66601     44.862232
    1067           0     -1568.088623  -1395.481323  -29500.00000     48.445423
    1068           0     -1568.088623  -1395.481323  -29833.33203     46.121964
    1069           0     -1568.088623  -1395.481323  -30166.66601     47.539513
    1070           0     -1568.088623  -1395.481323  -30500.00000     49.067577
    1071           0     -1568.088623  -1395.481323  -30833.33593     50.319813
    1072           0     -1568.088623  -1395.481323  -31166.66601     50.032764
    1073           0     -1568.088623  -1395.481323  -31500.00000     47.862988
    1074           0     -1568.088623  -1395.481323  -31833.33203     43.768284
    1075           0     -1568.088623  -1395.481323  -32166.66796     37.244110
    1076           0     -1568.088623  -1395.481323  -32500.00195     28.262484
    1077           0     -1568.088623  -1395.481323  -32833.33593     18.544035
    1078           0     -1568.088623  -1395.481323  -33166.66796     14.522039
    1079           0     -1568.088623  -1395.481323  -33500.00000     22.507273
    1080           0     -1568.088623  -1395.481323  -33833.33593     27.066763
    1081           0     -1484.295532  -1484.296631  -29166.66601     35.112556
    1082           0     -1484.295532  -1484.296631  -29500.00000     38.291676
    1083           0     -1484.295532  -1484.296631  -29833.33203     36.982105
    1084           0     -1484.295532  -1484.296631  -30166.66601     37.957676
    1085           0     -1484.295532  -1484.296631  -30500.00000     38.996552
    1086           0     -1484.295532  -1484.296631  -30833.33593     39.937809
    1087           0     -1484.295532  -1484.296631  -31166.66601     39.682449
    1088           0     -1484.295532  -1484.296631  -31500.00000     37.228970
    1089           0     -1484.295532  -1484.296631  -31833.33203     32.370945
    1090           0     -1484.295532  -1484.296631  -32166.66796     24.736530
    1091           0     -1484.295532  -1484.296631  -32500.00195     15.350494
    1092           0     -1484.295532  -1484.296631  -32833.33593      7.113653
    1093           0     -1484.295532  -1484.296631  -33166.66796      9.719929
    1094           0     -1484.295532  -1484.296631  -33500.00000     20.840250
    1095           0     -1484.295532  -1484.296631  -33833.33593     25.327272
    1096           0     -1395.480103  -1568.089600  -29166.66601     26.635775
    1097           0     -1395.480103  -1568.089600  -29500.00000     29.193401
    1098           0     -1395.480103  -1568.089600  -29833.33203     28.489016
    1099           0     -1395.480103  -1568.089600  -30166.66601     28.982374
    1100           0     -1395.480103  -1568.089600  -30500.00000     29.360332
    1101           0     -1395.480103  -1568.089600  -30833.33593     29.372444
    1102           0     -1395.480103  -1568.089600  -31166.66601     28.523642
    1103           0     -1395.480103  -1568.089600  -31500.00000     25.949310
    1104           0     -1395.480103  -1568.089600  -31833.33203     21.494341
    1105           0     -1395.480103  -1568.089600  -32166.66796     15.090988
    1106           0     -1395.480103  -1568.089600  -32500.00195      8.004966
    1107           0     -1395.480103  -1568.089600  -32833.33593      3.446407
    1108           0     -1395.480103  -1568.089600  -33166.66796      8.287736
    1109           0     -1395.480103  -1568.089600  -33500.00000     17.414036
    1110           0     -1395.480103  -1568.089600  -33833.33593     21.010469
    1111           0     -1301.942871  -1646.576660  -29166.66601     19.365044
    1112           0     -1301.942871  -1646.576660  -29500.00000     21.165161
    1113           0     -1301.942871  -1646.576660  -29833.33203     20.840101
    1114           0     -1301.942871  -1646.576660  -30166.66601     21.117088
    1115           0     -1301.942871  -1646.576660  -30500.00000     21.442778
    1116           0     -1301.942871  -1646.576660  -30833.33593     21.434740
    1117           0     -1301.942871  -1646.576660  -31166.66601     20.854490
    1118           0     -1301.942871  -1646.576660  -31500.00000     19.176895
    1119           0     -1301.942871  -1646.576660  -31833.33203     16.445332
    1120           0     -1301.942871  -1646.576660  -32166.66796     12.934037
    1121           0     -1301.942871  -1646.576660  -32500.00195      9.497954
    1122           0     -1301.942871  -1646.576660  -32833.33593      7.667185
    1123           0     -1301.942871  -1646.576660  -33166.66796      8.534097
    1124           0     -1301.942871  -1646.576660  -33500.00000     13.328448
    1125           0     -1301.942871  -1646.576660  -33833.33593     15.553471
    1126           0     -1204.000244  -1719.492188  -29166.66601     13.136964
    1127           0     -1204.000244  -1719.492188  -29500.00000     14.186025
    1128           0     -1204.000244  -1719.492188  -29833.33203     14.242187
    1129           0     -1204.000244  -1719.492188  -30166.66601     14.715972
    1130           0     -1204.000244  -1719.492188  -30500.00000     15.614540
    1131           0     -1204.000244  -1719.492188  -30833.33593     16.510136
    1132           0     -1204.000244  -1719.492188  -31166.66601     17.126434
    1133           0     -1204.000244  -1719.492188  -31500.00000     16.942636
    1134           0     -1204.000244  -1719.492188  -31833.33203     15.790831
    1135           0     -1204.000244  -1719.492188  -32166.66796     13.928753
    1136           0     -1204.000244  -1719.492188  -32500.00195     11.669123
    1137           0     -1204.000244  -1719.492188  -32833.33593     10.022334
    1138           0     -1204.000244  -1719.492188  -33166.66796      9.144958
    1139           0     -1204.000244  -1719.492188  -33500.00000     10.232822
    1140           0     -1204.000244  -1719.492188  -33833.33593     10.894087
    1141           0     -1101.983643  -1786.589478  -29166.66601      7.784286
    1142           0     -1101.983643  -1786.589478  -29500.00000      8.269663
    1143           0     -1101.983643  -1786.589478  -29833.33203      8.953484
    1144           0     -1101.983643  -1786.589478  -30166.66601     10.061488
    1145           0     -1101.983643  -1786.589478  -30500.00000     11.732645
    1146           0     -1101.983643  -1786.589478  -30833.33593     13.408793
    1147           0     -1101.983643  -1786.589478  -31166.66601     14.762086
    1148           0     -1101.983643  -1786.589478  -31500.00000     15.289397
    1149           0     -1101.983643  -1786.589478  -31833.33203     14.721966
    1150           0     -1101.983643  -1786.589478  -32166.66796     13.397650
    1151           0     -1101.983643  -1786.589478  -32500.00195     11.631188
    1152           0     -1101.983643  -1786.589478  -32833.33593     10.360458
    1153           0     -1101.983643  -1786.589478  -33166.66796      9.341544
    1154           0     -1101.983643  -1786.589478  -33500.00000      9.220181
    1155           0     -1101.983643  -1786.589478  -33833.33593      8.990644
    1156           0      -996.238403  -1847.641357  -29166.66601      3.235883
    1157           0      -996.238403  -1847.641357  -29500.00000      3.692230
    1158           0      -996.238403  -1847.641357  -29833.33203      5.491118
    1159           0      -996.238403  -1847.641357  -30166.66601      7.339576
    1160           0      -996.238403  -1847.641357  -30500.00000      9.303704
    1161           0      -996.238403  -1847.641357  -30833.33593     10.945198
    1162           0      -996.238403  -1847.641357  -31166.66601     12.091410
    1163           0      -996.238403  -1847.641357  -31500.00000     12.477960
    1164           0      -996.238403  -1847.641357  -31833.33203     11.991085
    1165           0      -996.238403  -1847.641357  -32166.66796     10.985402
    1166           0      -996.238403  -1847.641357  -32500.00195      9.790124
    1167           0      -996.238403  -1847.641357  -32833.33593      9.211895
    1168           0      -996.238403  -1847.641357  -33166.66796      8.862063
    1169           0      -996.238403  -1847.641357  -33500.00000      9.572514
    1170           0      -996.238403  -1847.641357  -33833.33593      9.579583
    1171           0      -887.122070  -1902.441650  -29166.66601      0.999952
    1172           0      -887.122070  -1902.441650  -29500.00000      2.674168
    1173           0      -887.122070  -1902.441650  -29833.33203      4.702500
    1174           0      -887.122070  -1902.441650  -30166.66601      6.440282
    1175           0      -887.122070  -1902.441650  -30500.00000      7.851217
    1176           0      -887.122070  -1902.441650  -30833.33593      8.803800
    1177           0      -887.122070  -1902.441650  -31166.66601      9.231029
    1178           0      -887.122070  -1902.441650  -31500.00000      9.086952
    1179           0      -887.122070  -1902.441650  -31833.33203      8.462651
    1180           0      -887.122070  -1902.441650  -32166.66796      7.650369
    1181           0      -887.122070  -1902.441650  -32500.00195      7.028152
    1182           0      -887.122070  -1902.441650  -32833.33593      7.254338
    1183           0      -887.122070  -1902.441650  -33166.66796      7.844962
    1184           0      -887.122070  -1902.441650  -33500.00000      9.885972
    1185           0      -887.122070  -1902.441650  -33833.33593     10.416533
    1186           0      -775.004028  -1950.804565  -29166.66601      3.750396
    1187           0      -775.004028  -1950.804565  -29500.00000      4.896837
    1188           0      -775.004028  -1950.804565  -29833.33203      5.715158
    1189           0      -775.004028  -1950.804565  -30166.66601      6.634902
    1190           0      -775.004028  -1950.804565  -30500.00000      7.129383
    1191           0      -775.004028  -1950.804565  -30833.33593      7.264807
    1192           0      -775.004028  -1950.804565  -31166.66601      6.963651
    1193           0      -775.004028  -1950.804565  -31500.00000      6.265738
    1194           0      -775.004028  -1950.804565  -31833.33203      5.364936
    1195           0      -775.004028  -1950.804565  -32166.66796      4.495727
    1196           0      -775.004028  -1950.804565  -32500.00195      4.275784
    1197           0      -775.004028  -1950.804565  -32833.33593      5.230205
    1198           0      -775.004028  -1950.804565  -33166.66796      6.612638
    1199           0      -775.004028  -1950.804565  -33500.00000      9.536339
    1200           0      -775.004028  -1950.804565  -33833.33593     10.363566
    1201           0      -660.263672  -1992.566650  -29166.66601      5.837644
    1202           0      -660.263672  -1992.566650  -29500.00000      6.706926
    1203           0      -660.263672  -1992.566650  -29833.33203      6.768282
    1204           0      -660.263672  -1992.566650  -30166.66601      7.042706
    1205           0      -660.263672  -1992.566650  -30500.00000      6.873895
    1206           0      -660.263672  -1992.566650  -30833.33593      6.488132
    1207           0      -660.263672  -1992.566650  -31166.66601      5.786880
    1208           0      -660.263672  -1992.566650  -31500.00000      4.817695
    1209           0      -660.263672  -1992.566650  -31833.33203      3.716775
    1210           0      -660.263672  -1992.566650  -32166.66796      2.624356
    1211           0      -660.263672  -1992.566650  -32500.00195      2.488880
    1212           0      -660.263672  -1992.566650  -32833.33593      3.785480
    1213           0      -660.263672  -1992.566650  -33166.66796      5.451306
    1214           0      -660.263672  -1992.566650  -33500.00000      8.519032
    1215           0      -660.263672  -1992.566650  -33833.33593      9.348193
    1216           0      -543.289124  -2027.586426  -29166.66601      7.078780
    1217           0      -543.289124  -2027.586426  -29500.00000      7.669102
    1218           0      -543.289124  -2027.586426  -29833.33203      7.275879
    1219           0      -543.289124  -2027.586426  -30166.66601      7.181510
    1220           0      -543.289124  -2027.586426  -30500.00000      6.705309
    1221           0      -543.289124  -2027.586426  -30833.33593      6.141388
    1222           0      -543.289124  -2027.586426  -31166.66601      5.382775
    1223           0      -543.289124  -2027.586426  -31500.00000      4.491639
    1224           0      -543.289124  -2027.586426  -31833.33203      3.527584
    1225           0      -543.289124  -2027.586426  -32166.66796      2.590659
    1226           0      -543.289124  -2027.586426  -32500.00195      2.299904
    1227           0      -543.289124  -2027.586426  -32833.33593      3.150454
    1228           0      -543.289124  -2027.586426  -33166.66796      4.485342
    1229           0      -543.289124  -2027.586426  -33500.00000      7.082590
    1230           0      -543.289124  -2027.586426  -33833.33593      7.705125
    1231           0      -424.476318  -2055.745605  -29166.66601      7.589221
    1232           0      -424.476318  -2055.745605  -29500.00000      7.901963
    1233           0      -424.476318  -2055.745605  -29833.33203      7.230843
    1234           0      -424.476318  -2055.745605  -30166.66601      6.942079
    1235           0      -424.476318  -2055.745605  -30500.00000      6.373839
    1236           0      -424.476318  -2055.745605  -30833.33593      5.805746
    1237           0      -424.476318  -2055.745605  -31166.66601      5.131631
    1238           0      -424.476318  -2055.745605  -31500.00000      4.419305
    1239           0      -424.476318  -2055.745605  -31833.33203      3.683656
    1240           0      -424.476318  -2055.745605  -32166.66796      3.020974
    1241           0      -424.476318  -2055.745605  -32500.00195      2.664811
    1242           0      -424.476318  -2055.745605  -32833.33593      2.946140
    1243           0      -424.476318  -2055.745605  -33166.66796      3.696027
    1244           0      -424.476318  -2055.745605  -33500.00000      5.532301
    1245           0      -424.476318  -2055.745605  -33833.33593      5.856155
    1246           0      -304.227173  -2076.948730  -29166.66601      7.597376
    1247           0      -304.227173  -2076.948730  -29500.00000      7.667197
    1248           0      -304.227173  -2076.948730  -29833.33203      6.831697
    1249           0      -304.227173  -2076.948730  -30166.66601      6.441807
    1250           0      -304.227173  -2076.948730  -30500.00000      5.874154
    1251           0      -304.227173  -2076.948730  -30833.33593      5.353727
    1252           0      -304.227173  -2076.948730  -31166.66601      4.782939
    1253           0      -304.227173  -2076.948730  -31500.00000      4.216385
    1254           0      -304.227173  -2076.948730  -31833.33203      3.642658
    1255           0      -304.227173  -2076.948730  -32166.66796      3.149647
    1256           0      -304.227173  -2076.948730  -32500.00195      2.789459
    1257           0      -304.227173  -2076.948730  -32833.33593      2.765659
    1258           0      -304.227173  -2076.948730  -33166.66796      3.047767
    1259           0      -304.227173  -2076.948730  -33500.00000      4.146203
    1260           0      -304.227173  -2076.948730  -33833.33593      4.177662
    1261           0      -182.948608  -2091.124023  -29166.66601      7.390747
    1262           0      -182.948608  -2091.124023  -29500.00000      7.283447
    1263           0      -182.948608  -2091.124023  -29833.33203      6.356033
    1264           0      -182.948608  -2091.124023  -30166.66601      5.914776
    1265           0      -182.948608  -2091.124023  -30500.00000      5.373630
    1266           0      -182.948608  -2091.124023  -30833.33593      4.901827
    1267           0      -182.948608  -2091.124023  -31166.66601      4.412488
    1268           0      -182.948608  -2091.124023  -31500.00000      3.938831
    1269           0      -182.948608  -2091.124023  -31833.33203      3.456892
    1270           0      -182.948608  -2091.124023  -32166.66796      3.047860
    1271           0      -182.948608  -2091.124023  -32500.00195      2.696001
    1272           0      -182.948608  -2091.124023  -32833.33593      2.541018
    1273           0      -182.948608  -2091.124023  -33166.66796      2.560310
    1274           0      -182.948608  -2091.124023  -33500.00000      3.135504
    1275           0      -182.948608  -2091.124023  -33833.33593      2.946199
    1276           0       -61.051060  -2098.223633  -29166.66601      7.247427
    1277           0       -61.051060  -2098.223633  -29500.00000      7.044318
    1278           0       -61.051060  -2098.223633  -29833.33203      6.075186
    1279           0       -61.051060  -2098.223633  -30166.66601      5.609504
    1280           0       -61.051060  -2098.223633  -30500.00000      5.086051
    1281           0       -61.051060  -2098.223633  -30833.33593      4.640362
    1282           0       -61.051060  -2098.223633  -31166.66601      4.192403
    1283           0       -61.051060  -2098.223633  -31500.00000      3.760308
    1284           0       -61.051060  -2098.223633  -31833.33203      3.315541
    1285           0       -61.051060  -2098.223633  -32166.66796      2.935481
    1286           0       -61.051060  -2098.223633  -32500.00195      2.587123
    1287           0       -61.051060  -2098.223633  -32833.33593      2.384212
    1288           0       -61.051060  -2098.223633  -33166.66796      2.299483
    1289           0       -61.051060  -2098.223633  -33500.00000      2.622694
    1290           0       -61.051060  -2098.223633  -33833.33593      2.323909
    1291           0        61.053070  -2098.223633  -29166.66601      7.336154
    1292           0        61.053070  -2098.223633  -29500.00000      7.127019
    1293           0        61.053070  -2098.223633  -29833.33203      6.155030
    1294           0        61.053070  -2098.223633  -30166.66601      5.680260
    1295           0        61.053070  -2098.223633  -30500.00000      5.147470
    1296           0        61.053070  -2098.223633  -30833.33593      4.691204
    1297           0        61.053070  -2098.223633  -31166.66601      4.233737
    1298           0        61.053070  -2098.223633  -31500.00000      3.792807
    1299           0        61.053070  -2098.223633  -31833.33203      3.340910
    1300           0        61.053070  -2098.223633  -32166.66796      2.953768
    1301           0        61.053070  -2098.223633  -32500.00195      2.601459
    1302           0        61.053070  -2098.223633  -32833.33593      2.393314
    1303           0        61.053070  -2098.223633  -33166.66796      2.314748
    1304           0        61.053070  -2098.223633  -33500.00000      2.637221
    1305           0        61.053070  -2098.223633  -33833.33593      2.359450
    1306           0       182.950684  -2091.123779  -29166.66601      7.643013
    1307           0       182.950684  -2091.123779  -29500.00000      7.518713
    1308           0       182.950684  -2091.123779  -29833.33203      6.582637
    1309           0       182.950684  -2091.123779  -30166.66601      6.117527
    1310           0       182.950684  -2091.123779  -30500.00000      5.552035
    1311           0       182.950684  -2091.123779  -30833.33593      5.052597
    1312           0       182.950684  -2091.123779  -31166.66601      4.538278
    1313           0       182.950684  -2091.123779  -31500.00000      4.041365
    1314           0       182.950684  -2091.123779  -31833.33203      3.540720
    1315           0       182.950684  -2091.123779  -32166.66796      3.112748
    1316           0       182.950684  -2091.123779  -32500.00195      2.750643
    1317           0       182.950684  -2091.123779  -32833.33593      2.581069
    1318           0       182.950684  -2091.123779  -33166.66796      2.616397
    1319           0       182.950684  -2091.123779  -33500.00000      3.185307
    1320           0       182.950684  -2091.123779  -33833.33593      3.045925
    1321           0       304.229187  -2076.948242  -29166.66601      7.982968
    1322           0       304.229187  -2076.948242  -29500.00000      8.026281
    1323           0       304.229187  -2076.948242  -29833.33203      7.178065
    1324           0       304.229187  -2076.948242  -30166.66601      6.757190
    1325           0       304.229187  -2076.948242  -30500.00000      6.158999
    1326           0       304.229187  -2076.948242  -30833.33593      5.603464
    1327           0       304.229187  -2076.948242  -31166.66601      5.000982
    1328           0       304.229187  -2076.948242  -31500.00000      4.405074
    1329           0       304.229187  -2076.948242  -31833.33203      3.808796
    1330           0       304.229187  -2076.948242  -32166.66796      3.292209
    1331           0       304.229187  -2076.948242  -32500.00195      2.920392
    1332           0       304.229187  -2076.948242  -32833.33593      2.871469
    1333           0       304.229187  -2076.948242  -33166.66796      3.169689
    1334           0       304.229187  -2076.948242  -33500.00000      4.243331
    1335           0       304.229187  -2076.948242  -33833.33593      4.333680
    1336           0       424.478271  -2055.745117  -29166.66601      8.076867
    1337           0       424.478271  -2055.745117  -29500.00000      8.356665
    1338           0       424.478271  -2055.745117  -29833.33203      7.671747
    1339           0       424.478271  -2055.745117  -30166.66601      7.353295
    1340           0       424.478271  -2055.745117  -30500.00000      6.758172
    1341           0       424.478271  -2055.745117  -30833.33593      6.159109
    1342           0       424.478271  -2055.745117  -31166.66601      5.458207
    1343           0       424.478271  -2055.745117  -31500.00000      4.723291
    1344           0       424.478271  -2055.745117  -31833.33203      3.976127
    1345           0       424.478271  -2055.745117  -32166.66796      3.304255
    1346           0       424.478271  -2055.745117  -32500.00195      2.944348
    1347           0       424.478271  -2055.745117  -32833.33593      3.172249
    1348           0       424.478271  -2055.745117  -33166.66796      3.912866
    1349           0       424.478271  -2055.745117  -33500.00000      5.690939
    1350           0       424.478271  -2055.745117  -33833.33593      6.070478
    1351           0       543.291138  -2027.586060  -29166.66601      7.644807
    1352           0       543.291138  -2027.586060  -29500.00000      8.197390
    1353           0       543.291138  -2027.586060  -29833.33203      7.790962
    1354           0       543.291138  -2027.586060  -30166.66601      7.673129
    1355           0       543.291138  -2027.586060  -30500.00000      7.180636
    1356           0       543.291138  -2027.586060  -30833.33593      6.600174
    1357           0       543.291138  -2027.586060  -31166.66601      5.832410
    1358           0       543.291138  -2027.586060  -31500.00000      4.943633
    1359           0       543.291138  -2027.586060  -31833.33203      4.007679
    1360           0       543.291138  -2027.586060  -32166.66796      3.129459
    1361           0       543.291138  -2027.586060  -32500.00195      2.855054
    1362           0       543.291138  -2027.586060  -32833.33593      3.555023
    1363           0       543.291138  -2027.586060  -33166.66796      4.821737
    1364           0       543.291138  -2027.586060  -33500.00000      7.319064
    1365           0       543.291138  -2027.586060  -33833.33593      7.989061
    1366           0       660.265625  -1992.566162  -29166.66601      6.467723
    1367           0       660.265625  -1992.566162  -29500.00000      7.291786
    1368           0       660.265625  -1992.566162  -29833.33203      7.334378
    1369           0       660.265625  -1992.566162  -30166.66601      7.587887
    1370           0       660.265625  -1992.566162  -30500.00000      7.409970
    1371           0       660.265625  -1992.566162  -30833.33593      7.022179
    1372           0       660.265625  -1992.566162  -31166.66601      6.331251
    1373           0       660.265625  -1992.566162  -31500.00000      5.393889
    1374           0       660.265625  -1992.566162  -31833.33203      4.367310
    1375           0       660.265625  -1992.566162  -32166.66796      3.412967
    1376           0       660.265625  -1992.566162  -32500.00195      3.295500
    1377           0       660.265625  -1992.566162  -32833.33593      4.359874
    1378           0       660.265625  -1992.566162  -33166.66796      5.917381
    1379           0       660.265625  -1992.566162  -33500.00000      8.853802
    1380           0       660.265625  -1992.566162  -33833.33593      9.719866
    1381           0       775.005920  -1950.803833  -29166.66601      4.448790
    1382           0       775.005920  -1950.803833  -29500.00000      5.520477
    1383           0       775.005920  -1950.803833  -29833.33203      6.284476
    1384           0       775.005920  -1950.803833  -30166.66601      7.170187
    1385           0       775.005920  -1950.803833  -30500.00000      7.647234
    1386           0       775.005920  -1950.803833  -30833.33593      7.780573
    1387           0       775.005920  -1950.803833  -31166.66601      7.490398
    1388           0       775.005920  -1950.803833  -31500.00000      6.821462
    1389           0       775.005920  -1950.803833  -31833.33203      5.978989
    1390           0       775.005920  -1950.803833  -32166.66796      5.193575
    1391           0       775.005920  -1950.803833  -32500.00195      5.025204
    1392           0       775.005920  -1950.803833  -32833.33593      5.886246
    1393           0       775.005920  -1950.803833  -33166.66796      7.201034
    1394           0       775.005920  -1950.803833  -33500.00000      9.994568
    1395           0       775.005920  -1950.803833  -33833.33593     10.848826
    1396           0       887.123901  -1902.440918  -29166.66601      1.828461
    1397           0       887.123901  -1902.440918  -29500.00000      3.227395
    1398           0       887.123901  -1902.440918  -29833.33203      5.120147
    1399           0       887.123901  -1902.440918  -30166.66601      6.830955
    1400           0       887.123901  -1902.440918  -30500.00000      8.229462
    1401           0       887.123901  -1902.440918  -30833.33593      9.187037
    1402           0       887.123901  -1902.440918  -31166.66601      9.631276
    1403           0       887.123901  -1902.440918  -31500.00000      9.520215
    1404           0       887.123901  -1902.440918  -31833.33203      8.954839
    1405           0       887.123901  -1902.440918  -32166.66796      8.220098
    1406           0       887.123901  -1902.440918  -32500.00195      7.688746
    1407           0       887.123901  -1902.440918  -32833.33593      7.941048
    1408           0       887.123901  -1902.440918  -33166.66796      8.539547
    1409           0       887.123901  -1902.440918  -33500.00000     10.496183
    1410           0       887.123901  -1902.440918  -33833.33593     11.049263
    1411           0       996.240112  -1847.640503  -29166.66601      2.904819
    1412           0       996.240112  -1847.640503  -29500.00000      3.519465
    1413           0       996.240112  -1847.640503  -29833.33203      5.481520
    1414           0       996.240112  -1847.640503  -30166.66601      7.426959
    1415           0       996.240112  -1847.640503  -30500.00000      9.447276
    1416           0       996.240112  -1847.640503  -30833.33593     11.138590
    1417           0       996.240112  -1847.640503  -31166.66601     12.339761
    1418           0       996.240112  -1847.640503  -31500.00000     12.795093
    1419           0       996.240112  -1847.640503  -31833.33203     12.397929
    1420           0       996.240112  -1847.640503  -32166.66796     11.494983
    1421           0       996.240112  -1847.640503  -32500.00195     10.417655
    1422           0       996.240112  -1847.640503  -32833.33593      9.928697
    1423           0       996.240112  -1847.640503  -33166.66796      9.646464
    1424           0       996.240112  -1847.640503  -33500.00000     10.352232
    1425           0       996.240112  -1847.640503  -33833.33593     10.385471
    1426           0      1101.985352  -1786.588501  -29166.66601      7.327722
    1427           0      1101.985352  -1786.588501  -29500.00000      7.865956
    1428           0      1101.985352  -1786.588501  -29833.33203      8.650222
    1429           0      1101.985352  -1786.588501  -30166.66601      9.863601
    1430           0      1101.985352  -1786.588501  -30500.00000     11.635231
    1431           0      1101.985352  -1786.588501  -30833.33593     13.412278
    1432           0      1101.985352  -1786.588501  -31166.66601     14.872890
    1433           0      1101.985352  -1786.588501  -31500.00000     15.517611
    1434           0      1101.985352  -1786.588501  -31833.33203     15.079193
    1435           0      1101.985352  -1786.588501  -32166.66796     13.891324
    1436           0      1101.985352  -1786.588501  -32500.00195     12.268660
    1437           0      1101.985352  -1786.588501  -32833.33593     11.124212
    1438           0      1101.985352  -1786.588501  -33166.66796     10.196175
    1439           0      1101.985352  -1786.588501  -33500.00000     10.109140
    1440           0      1101.985352  -1786.588501  -33833.33593      9.877944
    1441           0      1204.001953  -1719.490967  -29166.66601     12.676951
    1442           0      1204.001953  -1719.490967  -29500.00000     13.755408
    1443           0      1204.001953  -1719.490967  -29833.33203     13.849066
    1444           0      1204.001953  -1719.490967  -30166.66601     14.376115
    1445           0      1204.001953  -1719.490967  -30500.00000     15.351081
    1446           0      1204.001953  -1719.490967  -30833.33593     16.358046
    1447           0      1204.001953  -1719.490967  -31166.66601     17.109112
    1448           0      1204.001953  -1719.490967  -31500.00000     17.077789
    1449           0      1204.001953  -1719.490967  -31833.33203     16.091608
    1450           0      1204.001953  -1719.490967  -32166.66796     14.412351
    1451           0      1204.001953  -1719.490967  -32500.00195     12.339748
    1452           0      1204.001953  -1719.490967  -32833.33593     10.853557
    1453           0      1204.001953  -1719.490967  -33166.66796     10.025091
    1454           0      1204.001953  -1719.490967  -33500.00000     11.005026
    1455           0      1204.001953  -1719.490967  -33833.33593     11.549949
    1456           0      1301.944458  -1646.575439  -29166.66601     18.921749
    1457           0      1301.944458  -1646.575439  -29500.00000     20.743185
    1458           0      1301.944458  -1646.575439  -29833.33203     20.431007
    1459           0      1301.944458  -1646.575439  -30166.66601     20.734468
    1460           0      1301.944458  -1646.575439  -30500.00000     21.107025
    1461           0      1301.944458  -1646.575439  -30833.33593     21.184278
    1462           0      1301.944458  -1646.575439  -31166.66601     20.708179
    1463           0      1301.944458  -1646.575439  -31500.00000     19.156940
    1464           0      1301.944458  -1646.575439  -31833.33203     16.583292
    1465           0      1301.944458  -1646.575439  -32166.66796     13.302033
    1466           0      1301.944458  -1646.575439  -32500.00195     10.162434
    1467           0      1301.944458  -1646.575439  -32833.33593      8.583214
    1468           0      1301.944458  -1646.575439  -33166.66796      9.316092
    1469           0      1301.944458  -1646.575439  -33500.00000     13.792265
    1470           0      1301.944458  -1646.575439  -33833.33593     15.867440
    1471           0      1395.481689  -1568.088257  -29166.66601     26.204260
    1472           0      1395.481689  -1568.088257  -29500.00000     28.781645
    1473           0      1395.481689  -1568.088257  -29833.33203     28.089083
    1474           0      1395.481689  -1568.088257  -30166.66601     28.606649
    1475           0      1395.481689  -1568.088257  -30500.00000     29.022127
    1476           0      1395.481689  -1568.088257  -30833.33593     29.091169
    1477           0      1395.481689  -1568.088257  -31166.66601     28.292204
    1478           0      1395.481689  -1568.088257  -31500.00000     25.766880
    1479           0      1395.481689  -1568.088257  -31833.33203     21.366978
    1480           0      1395.481689  -1568.088257  -32166.66796     15.071082
    1481           0      1395.481689  -1568.088257  -32500.00195      8.241900
    1482           0      1395.481689  -1568.088257  -32833.33593      4.370413
    1483           0      1395.481689  -1568.088257  -33166.66796      8.704199
    1484           0      1395.481689  -1568.088257  -33500.00000     17.577662
    1485           0      1395.481689  -1568.088257  -33833.33593     21.073935
    1486           0      1484.296875  -1484.295166  -29166.66601     34.674126
    1487           0      1484.296875  -1484.295166  -29500.00000     37.879005
    1488           0      1484.296875  -1484.295166  -29833.33203     36.601414
    1489           0      1484.296875  -1484.295166  -30166.66601     37.618511
    1490           0      1484.296875  -1484.295166  -30500.00000     38.700806
    1491           0      1484.296875  -1484.295166  -30833.33593     39.684116
    1492           0      1484.296875  -1484.295166  -31166.66601     39.443596
    1493           0      1484.296875  -1484.295166  -31500.00000     36.985344
    1494           0      1484.296875  -1484.295166  -31833.33203     32.098724
    1495           0      1484.296875  -1484.295166  -32166.66796     24.418015
    1496           0      1484.296875  -1484.295166  -32500.00195     14.953094
    1497           0      1484.296875  -1484.295166  -32833.33593      6.606338
    1498           0      1484.296875  -1484.295166  -33166.66796      9.487994
    1499           0      1484.296875  -1484.295166  -33500.00000     20.748932
    1500           0      1484.296875  -1484.295166  -33833.33593     25.208311
    1501           0      1568.089844  -1395.479858  -29166.66601     44.394691
    1502           0      1568.089844  -1395.479858  -29500.00000     48.021618
    1503           0      1568.089844  -1395.479858  -29833.33203     45.775951
    1504           0      1568.089844  -1395.479858  -30166.66601     47.269249
    1505           0      1568.089844  -1395.479858  -30500.00000     48.858379
    1506           0      1568.089844  -1395.479858  -30833.33593     50.148441
    1507           0      1568.089844  -1395.479858  -31166.66601     49.854637
    1508           0      1568.089844  -1395.479858  -31500.00000     47.645977
    1509           0      1568.089844  -1395.479858  -31833.33203     43.479397
    1510           0      1568.089844  -1395.479858  -32166.66796     36.850960
    1511           0      1568.089844  -1395.479858  -32500.00195     27.715923
    1512           0      1568.089844  -1395.479858  -32833.33593     17.805372
    1513           0      1568.089844  -1395.479858  -33166.66796     13.776097
    1514           0      1568.089844  -1395.479858  -33500.00000     22.149759
    1515           0      1568.089844  -1395.479858  -33833.33593     26.774418
    1516           0      1646.576782  -1301.942627  -29166.66601     55.256229
    1517           0      1646.576782  -1301.942627  -29500.00000     59.064571
    1518           0      1646.576782  -1301.942627  -29833.33203     55.229927
    1519           0      1646.576782  -1301.942627  -30166.66601     56.333523
    1520           0      1646.576782  -1301.942627  -30500.00000     56.344688
    1521           0      1646.576782  -1301.942627  -30833.33593     55.413670
    1522           0      1646.576782  -1301.942627  -31166.66601     53.535461
    1523           0      1646.576782  -1301.942627  -31500.00000     51.329868
    1524           0      1646.576782  -1301.942627  -31833.33203     48.667065
    1525           0      1646.576782  -1301.942627  -32166.66796     45.100090
    1526           0      1646.576782  -1301.942627  -32500.00195     39.520878
    1527           0      1646.576782  -1301.942627  -32833.33593     31.228498
    1528           0      1646.576782  -1301.942627  -33166.66796     22.769939
    1529           0      1646.576782  -1301.942627  -33500.00000     22.630493
    1530           0      1646.576782  -1301.942627  -33833.33593     25.413988
    1531           0      1719.492432  -1204.000000  -29166.66601     66.818115
    1532           0      1719.492432  -1204.000000  -29500.00000     70.395912
    1533           0      1719.492432  -1204.000000  -29833.33203     63.683331
    1534           0      1719.492432  -1204.000000  -30166.66601     61.494579
    1535           0      1719.492432  -1204.000000  -30500.00000     55.701851
    1536           0      1719.492432  -1204.000000  -30833.33593     49.698555
    1537           0      1719.492432  -1204.000000  -31166.66601     45.275734
    1538           0      1719.492432  -1204.000000  -31500.00000     42.891136
    1539           0      1719.492432  -1204.000000  -31833.33203     42.196957
    1540           0      1719.492432  -1204.000000  -32166.66796     42.620541
    1541           0      1719.492432  -1204.000000  -32500.00195     42.795193
    1542           0      1719.492432  -1204.000000  -32833.33593     41.170784
    1543           0      1719.492432  -1204.000000  -33166.66796     34.617310
    1544           0      1719.492432  -1204.000000  -33500.00000     26.962070
    1545           0      1719.492432  -1204.000000  -33833.33593     24.077850
    1546           0      1786.589478  -1101.983398  -29166.66601     78.248856
    1547           0      1786.589478  -1101.983398  -29500.00000     79.940498
    1548           0      1786.589478  -1101.983398  -29833.33203     67.751205
    1549           0      1786.589478  -1101.983398  -30166.66601     56.706482
    1550           0      1786.589478  -1101.983398  -30500.00000     41.884163
    1551           0      1786.589478  -1101.983398  -30833.33593     30.840509
    1552           0      1786.589478  -1101.983398  -31166.66601     24.639339
    1553           0      1786.589478  -1101.983398  -31500.00000     23.355978
    1554           0      1786.589478  -1101.983398  -31833.33203     24.448664
    1555           0      1786.589478  -1101.983398  -32166.66796     27.802578
    1556           0      1786.589478  -1101.983398  -32500.00195     31.609680
    1557           0      1786.589478  -1101.983398  -32833.33593     38.172665
    1558           0      1786.589478  -1101.983398  -33166.66796     42.191704
    1559           0      1786.589478  -1101.983398  -33500.00000     38.054070
    1560           0      1786.589478  -1101.983398  -33833.33593     30.457829
    1561           0      1847.641602   -996.238037  -29166.66601     86.371628
    1562           0      1847.641602   -996.238037  -29500.00000     84.120468
    1563           0      1847.641602   -996.238037  -29833.33203     61.040874
    1564           0      1847.641602   -996.238037  -30166.66601     41.352856
    1565           0      1847.641602   -996.238037  -30500.00000     27.820562
    1566           0      1847.641602   -996.238037  -30833.33593     26.883644
    1567           0      1847.641602   -996.238037  -31166.66601     30.770918
    1568           0      1847.641602   -996.238037  -31500.00000     33.046719
    1569           0      1847.641602   -996.238037  -31833.33203     33.611828
    1570           0      1847.641602   -996.238037  -32166.66796     29.384010
    1571           0      1847.641602   -996.238037  -32500.00195     23.297844
    1572           0      1847.641602   -996.238037  -32833.33593     17.691013
    1573           0      1847.641602   -996.238037  -33166.66796     30.905209
    1574           0      1847.641602   -996.238037  -33500.00000     47.245102
    1575           0      1847.641602   -996.238037  -33833.33593     45.048325
    1576           0      1902.441772   -887.121765  -29166.66601     86.870964
    1577           0      1902.441772   -887.121765  -29500.00000     76.092209
    1578           0      1902.441772   -887.121765  -29833.33203     56.719296
    1579           0      1902.441772   -887.121765  -30166.66601     55.184708
    1580           0      1902.441772   -887.121765  -30500.00000     65.151466
    1581           0      1902.441772   -887.121765  -30833.33593     72.537224
    1582           0      1902.441772   -887.121765  -31166.66601     77.727104
    1583           0      1902.441772   -887.121765  -31500.00000     80.408760
    1584           0      1902.441772   -887.121765  -31833.33203     78.338203
    1585           0      1902.441772   -887.121765  -32166.66796     74.725571
    1586           0      1902.441772   -887.121765  -32500.00195     63.190647
    1587           0      1902.441772   -887.121765  -32833.33593     49.128483
    1588           0      1902.441772   -887.121765  -33166.66796     18.782999
    1589           0      1902.441772   -887.121765  -33500.00000     34.645237
    1590           0      1902.441772   -887.121765  -33833.33593     54.658794
    1591           0      1950.804565   -775.003784  -29166.66601     70.746475
    1592           0      1950.804565   -775.003784  -29500.00000     86.624786
    1593           0      1950.804565   -775.003784  -29833.33203    110.216034
    1594           0      1950.804565   -775.003784  -30166.66601    117.385269
    1595           0      1950.804565   -775.003784  -30500.00000    124.606705
    1596           0      1950.804565   -775.003784  -30833.33593    128.954575
    1597           0      1950.804565   -775.003784  -31166.66601    130.295242
    1598           0      1950.804565   -775.003784  -31500.00000    131.334396
    1599           0      1950.804565   -775.003784  -31833.33203    129.942917
    1600           0      1950.804565   -775.003784  -32166.66796    127.886490
    1601           0      1950.804565   -775.003784  -32500.00195    123.202980
    1602           0      1950.804565   -775.003784  -32833.33593    114.229355
    1603           0      1950.804565   -775.003784  -33166.66796    103.576233
    1604           0      1950.804565   -775.003784  -33500.00000     60.378479
    1605           0      1950.804565   -775.003784  -33833.33593     39.029877
    1606           0      1992.908203   -659.120605  -29166.66601    140.274734
    1607           0      1992.908203   -659.120605  -29500.00000    207.263794
    1608           0      1992.908203   -659.120605  -29833.33203    200.360184
    1609           0      1992.908203   -659.120605  -30166.66601    189.712250
    1610           0      1992.908203   -659.120605  -30500.00000    183.873444
    1611           0      1992.908203   -659.120605  -30833.33593    178.836868
    1612           0      1992.908203   -659.120605  -31166.66601    174.464874
    1613           0      1992.908203   -659.120605  -31500.00000    173.643326
    1614           0      1992.908203   -659.120605  -31833.33203    172.477295
    1615           0      1992.908203   -659.120605  -32166.66796    175.977203
    1616           0      1992.908203   -659.120605  -32500.00195    178.736679
    1617           0      1992.908203   -659.120605  -32833.33593    187.956604
    1618           0      1992.908203   -659.120605  -33166.66796    193.780792
    1619           0      1992.908203   -659.120605  -33500.00000    215.789108
    1620           0      1992.908203   -659.120605  -33833.33593    150.112961
    1621           0      2098.223633     61.052101  -14578.05078    164.313416
    1622           0      2098.223633     61.052101  -14934.14843    168.465881
    1623           0      2098.223633     61.052101  -15290.24609    147.005905
    1624           0      2098.223633     61.052105  -15646.34277    134.645081
    1625           0      2098.223633     61.052105  -16002.44140    117.064423
    1626           0      2098.223633     61.052105  -16358.53808    101.644775
    1627           0      2098.223633     61.052109  -16714.63671     88.778938
    1628           0      2098.223633     61.052113  -17070.73437     79.739418
    1629           0      2098.223633     61.052113  -17426.83203     74.680626
    1630           0      2098.223633     61.052113  -17782.92968     73.331795
    1631           0      2098.223633     61.052113  -18139.02539     74.798866
    1632           0      2098.223633     61.052116  -18495.12304     78.209274
    1633           0      2098.223633     61.052116  -18851.22070     82.578949
    1634           0      2098.223633     61.052116  -19207.31835     87.369843
    1635           0      2098.223633     61.052116  -19563.41796     92.061028
    1636           0      2098.223633     61.052116  -19919.51562     96.435234
    1637           0      2098.223633     61.052120  -20275.61132    100.274788
    1638           0      2098.223633     61.052120  -20631.70898    103.486320
    1639           0      2098.223633     61.052120  -20987.80664    105.993164
    1640           0      2098.223633     61.052120  -21343.90429    107.732964
    1641           0      2098.223633     61.052124  -21700.00195    108.688034
    1642           0      2098.223633     61.052128  -22056.09765    108.795357
    1643           0      2098.223633     61.052128  -22412.19726    108.055092
    1644           0      2098.223633     61.052128  -22768.29296    106.395615
    1645           0      2098.223633     61.052128  -23124.39062    103.811035
    1646           0      2098.223633     61.052132  -23480.48828    100.222641
    1647           0      2098.223633     61.052132  -23836.58789     95.601944
    1648           0      2098.223633     61.052132  -24192.68359     89.869995
    1649           0      2098.223633     61.052132  -24548.78125     82.964149
    1650           0      2098.223633     61.052135  -24904.87890     74.820473
    1651           0      2098.223633     61.052139  -25260.97656     65.348885
    1652           0      2098.223633     61.052139  -25617.07421     54.550274
    1653           0      2098.223633     61.052139  -25973.17187     42.456837
    1654           0      2098.223633     61.052139  -26329.26953     29.568777
    1655           0      2098.223633     61.052139  -26685.36718     18.603090
    1656           0      2098.223633     61.052143  -27041.46484     19.270372
    1657           0      2098.223633     61.052143  -27397.56250     33.284237
    1658           0      2098.223633     61.052143  -27753.66015     50.478779
    1659           0      2098.223633     61.052147  -28109.75781     62.051834
    1660           0      2098.223633     61.052151  -28465.85546     75.261696
    1661           0      2098.223633     61.052448  -28821.95312     73.775169
    1662           0      2091.123779    182.949707  -14578.05078    155.971512
    1663           0      2091.123779    182.949707  -14934.14843    160.750504
    1664           0      2091.123779    182.949707  -15290.24609    142.607819
    1665           0      2091.123779    182.949722  -15646.34277    132.875092
    1666           0      2091.123779    182.949722  -16002.44140    118.583458
    1667           0      2091.123779    182.949722  -16358.53808    104.521095
    1668           0      2091.123779    182.949722  -16714.63671     90.558029
    1669           0      2091.123779    182.949722  -17070.73437     78.211472
    1670           0      2091.123779    182.949722  -17426.83203     68.250076
    1671           0      2091.123779    182.949722  -17782.92968     61.254543
    1672           0      2091.123779    182.949738  -18139.02539     57.517860
    1673           0      2091.123779    182.949738  -18495.12304     56.839115
    1674           0      2091.123779    182.949738  -18851.22070     58.513905
    1675           0      2091.123779    182.949738  -19207.31835     61.707550
    1676           0      2091.123779    182.949738  -19563.41796     65.627388
    1677           0      2091.123779    182.949738  -19919.51562     69.718086
    1678           0      2091.123779    182.949738  -20275.61132     73.584549
    1679           0      2091.123779    182.949738  -20631.70898     76.981880
    1680           0      2091.123779    182.949738  -20987.80664     79.743515
    1681           0      2091.123779    182.949738  -21343.90429     81.763710
    1682           0      2091.123779    182.949753  -21700.00195     82.967491
    1683           0      2091.123779    182.949768  -22056.09765     83.300232
    1684           0      2091.123779    182.949768  -22412.19726     82.722374
    1685           0      2091.123779    182.949768  -22768.29296     81.193039
    1686           0      2091.123779    182.949768  -23124.39062     78.689362
    1687           0      2091.123779    182.949768  -23480.48828     75.169098
    1688           0      2091.123779    182.949768  -23836.58789     70.624931
    1689           0      2091.123779    182.949768  -24192.68359     65.013695
    1690           0      2091.123779    182.949768  -24548.78125     58.359619
    1691           0      2091.123779    182.949768  -24904.87890     50.652164
    1692           0      2091.123779    182.949768  -25260.97656     42.028381
    1693           0      2091.123779    182.949783  -25617.07421     32.725731
    1694           0      2091.123779    182.949783  -25973.17187     23.684130
    1695           0      2091.123779    182.949783  -26329.26953     17.695793
    1696           0      2091.123779    182.949783  -26685.36718     20.248791
    1697           0      2091.123779    182.949783  -27041.46484     29.639763
    1698           0      2091.123779    182.949783  -27397.56250     41.010300
    1699           0      2091.123779    182.949783  -27753.66015     51.033791
    1700           0      2091.123779    182.949783  -28109.75781     56.621975
    1701           0      2091.123779    182.949783  -28465.85546     65.128616
    1702           0      2091.123779    182.949753  -28821.95312     63.564117
    1703           0      2076.948242    304.228210  -14578.05078    145.374893
    1704           0      2076.948242    304.228210  -14934.14843    150.217056
    1705           0      2076.948242    304.228210  -15290.24609    134.730606
    1706           0      2076.948242    304.228210  -15646.34277    127.122856
    1707           0      2076.948242    304.228210  -16002.44140    116.027428
    1708           0      2076.948242    304.228210  -16358.53808    104.994049
    1709           0      2076.948242    304.228210  -16714.63671     93.129982
    1710           0      2076.948242    304.228210  -17070.73437     81.352600
    1711           0      2076.948242    304.228210  -17426.83203     70.333237
    1712           0      2076.948242    304.228210  -17782.92968     60.565441
    1713           0      2076.948242    304.228210  -18139.02539     52.591888
    1714           0      2076.948242    304.228210  -18495.12304     46.846325
    1715           0      2076.948242    304.228210  -18851.22070     43.571236
    1716           0      2076.948242    304.228210  -19207.31835     42.664944
    1717           0      2076.948242    304.228210  -19563.41796     43.615097
    1718           0      2076.948242    304.228210  -19919.51562     45.740738
    1719           0      2076.948242    304.228210  -20275.61132     48.395100
    1720           0      2076.948242    304.228210  -20631.70898     51.097672
    1721           0      2076.948242    304.228210  -20987.80664     53.511864
    1722           0      2076.948242    304.228210  -21343.90429     55.424259
    1723           0      2076.948242    304.228210  -21700.00195     56.687378
    1724           0      2076.948242    304.228210  -22056.09765     57.216137
    1725           0      2076.948242    304.228210  -22412.19726     56.943810
    1726           0      2076.948242    304.228210  -22768.29296     55.844677
    1727           0      2076.948242    304.228210  -23124.39062     53.892872
    1728           0      2076.948242    304.228210  -23480.48828     51.104256
    1729           0      2076.948242    304.228210  -23836.58789     47.495781
    1730           0      2076.948242    304.228210  -24192.68359     43.149689
    1731           0      2076.948242    304.228210  -24548.78125     38.186806
    1732           0      2076.948242    304.228210  -24904.87890     32.890488
    1733           0      2076.948242    304.228210  -25260.97656     27.767218
    1734           0      2076.948242    304.228210  -25617.07421     23.848331
    1735           0      2076.948242    304.228210  -25973.17187     22.639872
    1736           0      2076.948242    304.228210  -26329.26953     25.073095
    1737           0      2076.948242    304.228210  -26685.36718     30.389614
    1738           0      2076.948242    304.228210  -27041.46484     36.771084
    1739           0      2076.948242    304.228210  -27397.56250     42.644169
    1740           0      2076.948242    304.228210  -27753.66015     47.036091
    1741           0      2076.948242    304.228210  -28109.75781     49.433762
    1742           0      2076.948242    304.228210  -28465.85546     55.160690
    1743           0      2076.948242    304.228210  -28821.95312     53.994316
    1744           0      2055.745117    424.477325  -14578.05078    133.693344
    1745           0      2055.745117    424.477325  -14934.14843    138.455643
    1746           0      2055.745117    424.477325  -15290.24609    125.214333
    1747           0      2055.745117    424.477325  -15646.34277    119.120903
    1748           0      2055.745117    424.477325  -16002.44140    110.584686
    1749           0      2055.745117    424.477325  -16358.53808    102.306992
    1750           0      2055.745117    424.477325  -16714.63671     93.407181
    1751           0      2055.745117    424.477325  -17070.73437     84.078140
    1752           0      2055.745117    424.477325  -17426.83203     74.766739
    1753           0      2055.745117    424.477325  -17782.92968     65.742523
    1754           0      2055.745117    424.477325  -18139.02539     57.379360
    1755           0      2055.745117    424.477325  -18495.12304     49.960251
    1756           0      2055.745117    424.477325  -18851.22070     43.776783
    1757           0      2055.745117    424.477325  -19207.31835     39.065945
    1758           0      2055.745117    424.477325  -19563.41796     35.958588
    1759           0      2055.745117    424.477325  -19919.51562     34.396278
    1760           0      2055.745117    424.477325  -20275.61132     34.108486
    1761           0      2055.745117    424.477325  -20631.70898     34.679649
    1762           0      2055.745117    424.477325  -20987.80664     35.692425
    1763           0      2055.745117    424.477325  -21343.90429     36.787384
    1764           0      2055.745117    424.477325  -21700.00195     37.718384
    1765           0      2055.745117    424.477325  -22056.09765     38.307117
    1766           0      2055.745117    424.477325  -22412.19726     38.464958
    1767           0      2055.745117    424.477325  -22768.29296     38.135330
    1768           0      2055.745117    424.477325  -23124.39062     37.333359
    1769           0      2055.745117    424.477325  -23480.48828     36.094288
    1770           0      2055.745117    424.477325  -23836.58789     34.534420
    1771           0      2055.745117    424.477325  -24192.68554     32.803570
    1772           0      2055.745117    424.477325  -24548.78125     31.158289
    1773           0      2055.745117    424.477325  -24904.87890     29.897280
    1774           0      2055.745117    424.477325  -25260.97656     29.377363
    1775           0      2055.745117    424.477325  -25617.07226     29.845875
    1776           0      2055.745117    424.477325  -25973.17187     31.366358
    1777           0      2055.745117    424.477325  -26329.26953     33.665009
    1778           0      2055.745117    424.477325  -26685.36914     36.368256
    1779           0      2055.745117    424.477325  -27041.46484     38.735004
    1780           0      2055.745117    424.477325  -27397.56250     40.449707
    1781           0      2055.745117    424.477325  -27753.66015     41.638481
    1782           0      2055.745117    424.477325  -28109.75781     42.664856
    1783           0      2055.745117    424.477325  -28465.85351     46.594864
    1784           0      2055.745117    424.477325  -28821.95117     45.707535
    1785           0      2027.586060    543.290161  -14578.05078    121.887573
    1786           0      2027.586060    543.290161  -14934.14843    126.622749
    1787           0      2027.586060    543.290161  -15290.24609    115.431976
    1788           0      2027.586060    543.290161  -15646.34277    110.480453
    1789           0      2027.586060    543.290161  -16002.44140    103.874191
    1790           0      2027.586060    543.290161  -16358.53808     97.692802
    1791           0      2027.586060    543.290161  -16714.63671     91.345200
    1792           0      2027.586060    543.290161  -17070.73437     84.697563
    1793           0      2027.586060    543.290161  -17426.83007     77.931831
    1794           0      2027.586060    543.290161  -17782.92773     71.156342
    1795           0      2027.586060    543.290161  -18139.02539     64.603088
    1796           0      2027.586060    543.290161  -18495.12304     58.450417
    1797           0      2027.586060    543.290161  -18851.22070     52.876125
    1798           0      2027.586060    543.290161  -19207.31835     48.033009
    1799           0      2027.586060    543.290161  -19563.41796     44.030811
    1800           0      2027.586060    543.290161  -19919.51367     40.931828
    1801           0      2027.586060    543.290161  -20275.61132     38.725704
    1802           0      2027.586060    543.290161  -20631.70898     37.329556
    1803           0      2027.586060    543.290161  -20987.80664     36.597488
    1804           0      2027.586060    543.290161  -21343.90234     36.351604
    1805           0      2027.586060    543.290161  -21700.00000     36.412121
    1806           0      2027.586060    543.290161  -22056.09765     36.626877
    1807           0      2027.586060    543.290161  -22412.19726     36.878254
    1808           0      2027.586060    543.290161  -22768.29492     37.094021
    1809           0      2027.586060    543.290161  -23124.39062     37.236221
    1810           0      2027.586060    543.290161  -23480.48828     37.304585
    1811           0      2027.586060    543.290161  -23836.58789     37.321033
    1812           0      2027.586060    543.290161  -24192.68554     37.328213
    1813           0      2027.586060    543.290161  -24548.78125     37.371120
    1814           0      2027.586060    543.290161  -24904.87890     37.488255
    1815           0      2027.586060    543.290161  -25260.97460     37.690956
    1816           0      2027.586060    543.290161  -25617.07226     37.951225
    1817           0      2027.586060    543.290161  -25973.17187     38.198841
    1818           0      2027.586060    543.290161  -26329.26953     38.303493
    1819           0      2027.586060    543.290161  -26685.36914     38.177532
    1820           0      2027.586060    543.290161  -27041.46484     37.629353
    1821           0      2027.586060    543.290161  -27397.56250     37.043251
    1822           0      2027.586060    543.290161  -27753.66015     36.835808
    1823           0      2027.586060    543.290161  -28109.75781     37.275280
    1824           0      2027.586060    543.290161  -28465.85351     39.742237
    1825           0      2027.586060    543.290161  -28821.94921     38.904907
    1826           0      1992.566162    660.264648  -14578.05078    110.824059
    1827           0      1992.566162    660.264648  -14934.14843    115.587166
    1828           0      1992.566162    660.264648  -15290.24609    106.326836
    1829           0      1992.566162    660.264648  -15646.34277    102.345589
    1830           0      1992.566162    660.264648  -16002.44140     97.231010
    1831           0      1992.566162    660.264648  -16358.53808     92.575645
    1832           0      1992.566162    660.264648  -16714.63671     88.107071
    1833           0      1992.566162    660.264648  -17070.73437     83.609795
    1834           0      1992.566162    660.264648  -17426.83203     79.157349
    1835           0      1992.566162    660.264648  -17782.92968     74.706543
    1836           0      1992.566162    660.264709  -18139.02539     70.378777
    1837           0      1992.566162    660.264709  -18495.12304     66.255699
    1838           0      1992.566162    660.264709  -18851.22070     62.438793
    1839           0      1992.566162    660.264709  -19207.31835     59.012054
    1840           0      1992.566162    660.264709  -19563.41796     56.039417
    1841           0      1992.566162    660.264709  -19919.51562     53.557220
    1842           0      1992.566162    660.264709  -20275.61132     51.573410
    1843           0      1992.566162    660.264709  -20631.70898     50.063046
    1844           0      1992.566162    660.264709  -20987.80664     48.978615
    1845           0      1992.566162    660.264709  -21343.90234     48.250053
    1846           0      1992.566162    660.264709  -21700.00000     47.800644
    1847           0      1992.566162    660.264709  -22056.09765     47.548534
    1848           0      1992.566162    660.264709  -22412.19726     47.419361
    1849           0      1992.566162    660.264709  -22768.29296     47.344543
    1850           0      1992.566162    660.264709  -23124.39062     47.267494
    1851           0      1992.566162    660.264709  -23480.48828     47.138355
    1852           0      1992.566162    660.264709  -23836.58789     46.915855
    1853           0      1992.566162    660.264709  -24192.68359     46.560226
    1854           0      1992.566162    660.264709  -24548.78125     46.034401
    1855           0      1992.566162    660.264709  -24904.87890     45.297234
    1856           0      1992.566162    660.264709  -25260.97656     44.310257
    1857           0      1992.566162    660.264709  -25617.07421     43.035954
    1858           0      1992.566162    660.264709  -25973.17187     41.462711
    1859           0      1992.566162    660.264709  -26329.26953     39.593487
    1860           0      1992.566162    660.264709  -26685.36914     37.556957
    1861           0      1992.566162    660.264709  -27041.46484     35.522255
    1862           0      1992.566162    660.264709  -27397.56250     34.060707
    1863           0      1992.566162    660.264709  -27753.66015     33.344448
    1864           0      1992.566162    660.264709  -28109.75781     33.295540
    1865           0      1992.566162    660.264709  -28465.85351     34.426945
    1866           0      1992.566162    660.264709  -28821.95312     33.482716
    1867           0      1950.804199    775.005005  -14578.05078    101.200516
    1868           0      1950.804199    775.005005  -14934.14843    106.043480
    1869           0      1950.804199    775.005005  -15290.24609     98.517487
    1870           0      1950.804199    775.005005  -15646.34277     95.437309
    1871           0      1950.804199    775.005005  -16002.44140     91.528320
    1872           0      1950.804199    775.005005  -16358.53808     88.013893
    1873           0      1950.804199    775.005005  -16714.63671     84.857742
    1874           0      1950.804199    775.005005  -17070.73437     81.861305
    1875           0      1950.804199    775.005005  -17426.83203     79.100700
    1876           0      1950.804199    775.005005  -17782.92968     76.462807
    1877           0      1950.804199    775.005005  -18139.02539     73.979126
    1878           0      1950.804199    775.005005  -18495.12304     71.653862
    1879           0      1950.804199    775.005005  -18851.22070     69.512398
    1880           0      1950.804199    775.005005  -19207.31835     67.578262
    1881           0      1950.804199    775.005005  -19563.41796     65.866432
    1882           0      1950.804199    775.005005  -19919.51562     64.384552
    1883           0      1950.804199    775.005005  -20275.61132     63.126278
    1884           0      1950.804199    775.005005  -20631.70898     62.074425
    1885           0      1950.804199    775.005005  -20987.80664     61.199688
    1886           0      1950.804199    775.005005  -21343.90429     60.464371
    1887           0      1950.804199    775.005005  -21700.00195     59.823292
    1888           0      1950.804199    775.005005  -22056.09765     59.227577
    1889           0      1950.804199    775.005005  -22412.19726     58.625202
    1890           0      1950.804199    775.005005  -22768.29296     57.964127
    1891           0      1950.804199    775.005005  -23124.39062     57.191570
    1892           0      1950.804199    775.005005  -23480.48828     56.256645
    1893           0      1950.804199    775.005005  -23836.58789     55.109161
    1894           0      1950.804199    775.005005  -24192.68554     53.703007
    1895           0      1950.804199    775.005005  -24548.78125     51.996655
    1896           0      1950.804199    775.005005  -24904.87890     49.961197
    1897           0      1950.804199    775.005005  -25260.97656     47.583843
    1898           0      1950.804199    775.005005  -25617.07226     44.888401
    1899           0      1950.804199    775.005005  -25973.17187     41.948746
    1900           0      1950.804199    775.005005  -26329.26953     38.900455
    1901           0      1950.804199    775.005005  -26685.36914     36.011967
    1902           0      1950.804199    775.005005  -27041.46484     33.566593
    1903           0      1950.804199    775.005005  -27397.56250     31.915138
    1904           0      1950.804199    775.005005  -27753.66015     30.892355
    1905           0      1950.804199    775.005005  -28109.75781     30.271580
    1906           0      1950.804199    775.005005  -28465.85351     30.271671
    1907           0      1950.804199    775.005005  -28821.95117     29.161350
    1908           0      1902.441162    887.123047  -14578.05078     93.517822
    1909           0      1902.441162    887.123047  -14934.14843     98.492348
    1910           0      1902.441162    887.123047  -15290.24609     92.414940
    1911           0      1902.441162    887.123047  -15646.34277     90.155090
    1912           0      1902.441162    887.123047  -16002.44140     87.239830
    1913           0      1902.441162    887.123047  -16358.53808     84.609901
    1914           0      1902.441162    887.123047  -16714.63671     82.369057
    1915           0      1902.441162    887.123047  -17070.73437     80.349464
    1916           0      1902.441162    887.123047  -17426.83007     78.665916
    1917           0      1902.441162    887.123047  -17782.92773     77.203400
    1918           0      1902.441162    887.123047  -18139.02539     75.951775
    1919           0      1902.441162    887.123047  -18495.12304     74.866013
    1920           0      1902.441162    887.123047  -18851.22070     73.921280
    1921           0      1902.441162    887.123047  -19207.31835     73.091484
    1922           0      1902.441162    887.123047  -19563.41796     72.352051
    1923           0      1902.441162    887.123047  -19919.51367     71.678696
    1924           0      1902.441162    887.123047  -20275.61132     71.045670
    1925           0      1902.441162    887.123047  -20631.70898     70.424950
    1926           0      1902.441162    887.123047  -20987.80664     69.786476
    1927           0      1902.441162    887.123047  -21343.90234     69.096878
    1928           0      1902.441162    887.123047  -21700.00000     68.321045
    1929           0      1902.441162    887.123047  -22056.09765     67.421112
    1930           0      1902.441162    887.123047  -22412.19726     66.358299
    1931           0      1902.441162    887.123047  -22768.29492     65.092674
    1932           0      1902.441162    887.123047  -23124.39062     63.585083
    1933           0      1902.441162    887.123108  -23480.48828     61.798359
    1934           0      1902.441162    887.123108  -23836.58789     59.699799
    1935           0      1902.441162    887.123108  -24192.68554     57.265858
    1936           0      1902.441162    887.123108  -24548.78125     54.486233
    1937           0      1902.441162    887.123108  -24904.87890     51.375240
    1938           0      1902.441040    887.123108  -25260.97460     47.976868
    1939           0      1902.441040    887.123108  -25617.07226     44.386135
    1940           0      1902.441040    887.123108  -25973.17187     40.754337
    1941           0      1902.441040    887.123108  -26329.26953     37.298069
    1942           0      1902.441040    887.123108  -26685.36914     34.292156
    1943           0      1902.441040    887.123108  -27041.46484     31.906511
    1944           0      1902.441040    887.123108  -27397.56250     30.183439
    1945           0      1902.441040    887.123108  -27753.66015     28.825497
    1946           0      1902.441040    887.123108  -28109.75781     27.681026
    1947           0      1902.441040    887.123108  -28465.85351     26.865641
    1948           0      1902.441162    887.123108  -28821.94921     25.642996
    1949           0      1847.640869    996.239258  -14578.05078     88.062210
    1950           0      1847.640869    996.239258  -14934.14843     93.225555
    1951           0      1847.640869    996.239258  -15290.24609     88.247742
    1952           0      1847.640869    996.239258  -15646.34277     86.685478
    1953           0      1847.640869    996.239258  -16002.44140     84.549088
    1954           0      1847.640869    996.239258  -16358.53808     82.605614
    1955           0      1847.640869    996.239258  -16714.63671     80.997993
    1956           0      1847.640869    996.239258  -17070.73437     79.587944
    1957           0      1847.640869    996.239258  -17426.83203     78.511627
    1958           0      1847.640869    996.239258  -17782.92968     77.685196
    1959           0      1847.640869    996.239258  -18139.02539     77.092072
    1960           0      1847.640869    996.239258  -18495.12304     76.671776
    1961           0      1847.640869    996.239258  -18851.22070     76.375534
    1962           0      1847.640869    996.239258  -19207.31835     76.151863
    1963           0      1847.640869    996.239258  -19563.41796     75.950584
    1964           0      1847.640869    996.239258  -19919.51562     75.725067
    1965           0      1847.640869    996.239258  -20275.61132     75.430984
    1966           0      1847.640869    996.239258  -20631.70898     75.027336
    1967           0      1847.640869    996.239258  -20987.80664     74.475517
    1968           0      1847.640869    996.239258  -21343.90234     73.739189
    1969           0      1847.640869    996.239258  -21700.00000     72.783691
    1970           0      1847.640869    996.239258  -22056.09765     71.576340
    1971           0      1847.640869    996.239258  -22412.19726     70.086258
    1972           0      1847.640869    996.239258  -22768.29296     68.285873
    1973           0      1847.640869    996.239258  -23124.39062     66.151398
    1974           0      1847.640869    996.239258  -23480.48828     63.666698
    1975           0      1847.640869    996.239258  -23836.58789     60.824520
    1976           0      1847.640869    996.239258  -24192.68359     57.634846
    1977           0      1847.640869    996.239258  -24548.78125     54.125866
    1978           0      1847.640869    996.239258  -24904.87890     50.360165
    1979           0      1847.640869    996.239258  -25260.97656     46.431694
    1980           0      1847.640869    996.239258  -25617.07421     42.488636
    1981           0      1847.640869    996.239258  -25973.17187     38.712215
    1982           0      1847.640869    996.239258  -26329.26953     35.316921
    1983           0      1847.640869    996.239258  -26685.36914     32.465420
    1984           0      1847.640869    996.239258  -27041.46484     30.161228
    1985           0      1847.640869    996.239258  -27397.56250     28.289999
    1986           0      1847.640869    996.239258  -27753.66015     26.625004
    1987           0      1847.640869    996.239258  -28109.75781     25.140182
    1988           0      1847.640869    996.239258  -28465.85351     23.887148
    1989           0      1847.640869    996.239258  -28821.95312     22.702492
    1990           0      1786.588867   1101.984619  -14578.05078     84.914627
    1991           0      1786.588867   1101.984619  -14934.14843     90.322166
    1992           0      1786.588867   1101.984619  -15290.24609     86.073425
    1993           0      1786.588867   1101.984619  -15646.34277     85.050072
    1994           0      1786.588867   1101.984619  -16002.44140     83.456200
    1995           0      1786.588867   1101.984619  -16358.53808     82.006416
    1996           0      1786.588867   1101.984619  -16714.63671     80.807167
    1997           0      1786.588867   1101.984619  -17070.73437     79.745872
    1998           0      1786.588867   1101.984619  -17426.83203     78.953720
    1999           0      1786.588867   1101.984619  -17782.92968     78.379654
    2000           0      1786.588867   1101.984619  -18139.02539     78.016823
    2001           0      1786.588867   1101.984619  -18495.12304     77.809746
    2002           0      1786.588867   1101.984619  -18851.22070     77.705505
    2003           0      1786.588867   1101.984619  -19207.31835     77.645859
    2004           0      1786.588867   1101.984619  -19563.41796     77.572372
    2005           0      1786.588867   1101.984619  -19919.51562     77.428589
    2006           0      1786.588867   1101.984619  -20275.61132     77.161133
    2007           0      1786.588867   1101.984619  -20631.70898     76.720673
    2008           0      1786.588867   1101.984619  -20987.80664     76.062782
    2009           0      1786.588867   1101.984619  -21343.90429     75.147560
    2010           0      1786.588867   1101.984619  -21700.00195     73.940544
    2011           0      1786.588867   1101.984619  -22056.09765     72.412209
    2012           0      1786.588867   1101.984619  -22412.19726     70.539299
    2013           0      1786.588867   1101.984619  -22768.29296     68.305359
    2014           0      1786.588867   1101.984619  -23124.39062     65.702843
    2015           0      1786.588867   1101.984619  -23480.48828     62.735703
    2016           0      1786.588867   1101.984619  -23836.58789     59.422302
    2017           0      1786.588867   1101.984619  -24192.68554     55.801331
    2018           0      1786.588867   1101.984619  -24548.78125     51.933514
    2019           0      1786.588867   1101.984619  -24904.87890     47.913052
    2020           0      1786.588867   1101.984619  -25260.97656     43.860920
    2021           0      1786.588867   1101.984619  -25617.07226     39.935627
    2022           0      1786.588867   1101.984619  -25973.17187     36.297737
    2023           0      1786.588867   1101.984619  -26329.26953     33.090221
    2024           0      1786.588867   1101.984619  -26685.36914     30.349243
    2025           0      1786.588867   1101.984619  -27041.46484     27.996565
    2026           0      1786.588867   1101.984619  -27397.56250     25.935452
    2027           0      1786.588867   1101.984619  -27753.66015     24.065435
    2028           0      1786.588867   1101.984619  -28109.75781     22.461569
    2029           0      1786.588867   1101.984619  -28465.85351     21.141405
    2030           0      1786.588867   1101.984619  -28821.95117     20.196955
    2031           0      1719.491455   1204.001221  -14578.05078     83.975243
    2032           0      1719.491455   1204.001221  -14934.14843     89.674606
    2033           0      1719.491455   1204.001221  -15290.24609     85.792358
    2034           0      1719.491455   1204.001221  -15646.34277     85.134331
    2035           0      1719.491455   1204.001221  -16002.44140     83.837547
    2036           0      1719.491455   1204.001221  -16358.53808     82.682487
    2037           0      1719.491455   1204.001221  -16714.63671     81.688728
    2038           0      1719.491455   1204.001221  -17070.73437     80.774055
    2039           0      1719.491455   1204.001221  -17426.83007     80.042885
    2040           0      1719.491455   1204.001221  -17782.92773     79.468758
    2041           0      1719.491455   1204.001221  -18139.02539     79.055405
    2042           0      1719.491455   1204.001221  -18495.12304     78.761787
    2043           0      1719.491455   1204.001221  -18851.22070     78.540398
    2044           0      1719.491455   1204.001221  -19207.31835     78.336250
    2045           0      1719.491455   1204.001221  -19563.41796     78.092911
    2046           0      1719.491455   1204.001221  -19919.51367     77.754799
    2047           0      1719.491455   1204.001221  -20275.61132     77.268929
    2048           0      1719.491455   1204.001221  -20631.70898     76.585991
    2049           0      1719.491455   1204.001221  -20987.80664     75.661835
    2050           0      1719.491455   1204.001221  -21343.90234     74.457939
    2051           0      1719.491455   1204.001221  -21700.00000     72.942642
    2052           0      1719.491455   1204.001221  -22056.09765     71.091530
    2053           0      1719.491455   1204.001221  -22412.19726     68.888985
    2054           0      1719.491455   1204.001221  -22768.29492     66.329018
    2055           0      1719.491455   1204.001221  -23124.39062     63.417549
    2056           0      1719.491455   1204.001221  -23480.48828     60.174244
    2057           0      1719.491455   1204.001221  -23836.58789     56.635414
    2058           0      1719.491455   1204.001221  -24192.68554     52.857113
    2059           0      1719.491455   1204.001221  -24548.78125     48.916481
    2060           0      1719.491455   1204.001221  -24904.87890     44.916039
    2061           0      1719.491455   1204.001221  -25260.97460     40.973602
    2062           0      1719.491455   1204.001221  -25617.07226     37.221317
    2063           0      1719.491455   1204.001221  -25973.17187     33.764137
    2064           0      1719.491455   1204.001221  -26329.26953     30.662670
    2065           0      1719.491455   1204.001221  -26685.36914     27.891216
    2066           0      1719.491455   1204.001221  -27041.46484     25.385469
    2067           0      1719.491455   1204.001221  -27397.56250     23.147598
    2068           0      1719.491455   1204.001221  -27753.66015     21.172134
    2069           0      1719.491455   1204.001221  -28109.75781     19.625389
    2070           0      1719.491455   1204.001221  -28465.85351     18.534723
    2071           0      1719.491455   1204.001221  -28821.94921     18.007252
    2072           0      1646.575928   1301.943604  -14578.05078     85.000916
    2073           0      1646.575928   1301.943604  -14934.14843     91.026718
    2074           0      1646.575928   1301.943604  -15290.24609     87.176659
    2075           0      1646.575928   1301.943604  -15646.34277     86.714027
    2076           0      1646.575928   1301.943604  -16002.44140     85.480148
    2077           0      1646.575928   1301.943604  -16358.53808     84.425674
    2078           0      1646.575928   1301.943604  -16714.63671     83.449234
    2079           0      1646.575928   1301.943604  -17070.73437     82.512016
    2080           0      1646.575928   1301.943604  -17426.83203     81.678085
    2081           0      1646.575928   1301.943604  -17782.92968     80.938293
    2082           0      1646.575928   1301.943604  -18139.02539     80.301445
    2083           0      1646.575928   1301.943604  -18495.12304     79.743912
    2084           0      1646.575928   1301.943604  -18851.22070     79.228119
    2085           0      1646.575928   1301.943604  -19207.31835     78.706871
    2086           0      1646.575928   1301.943604  -19563.41796     78.129372
    2087           0      1646.575928   1301.943604  -19919.51562     77.445396
    2088           0      1646.575928   1301.943604  -20275.61132     76.607277
    2089           0      1646.575928   1301.943604  -20631.70898     75.571144
    2090           0      1646.575928   1301.943604  -20987.80664     74.298416
    2091           0      1646.575928   1301.943604  -21343.90234     72.756416
    2092           0      1646.575928   1301.943604  -21700.00000     70.919762
    2093           0      1646.575928   1301.943604  -22056.09765     68.771133
    2094           0      1646.575928   1301.943604  -22412.19726     66.302795
    2095           0      1646.575928   1301.943604  -22768.29296     63.517498
    2096           0      1646.575928   1301.943604  -23124.39062     60.430511
    2097           0      1646.575928   1301.943604  -23480.48828     57.070469
    2098           0      1646.575928   1301.943604  -23836.58789     53.481766
    2099           0      1646.575928   1301.943604  -24192.68359     49.724533
    2100           0      1646.575928   1301.943604  -24548.78125     45.875488
    2101           0      1646.575928   1301.943726  -24904.87890     42.024288
    2102           0      1646.575928   1301.943726  -25260.97656     38.264580
    2103           0      1646.575928   1301.943726  -25617.07421     34.681530
    2104           0      1646.575928   1301.943726  -25973.17187     31.324631
    2105           0      1646.575928   1301.943726  -26329.26953     28.200520
    2106           0      1646.575928   1301.943726  -26685.36914     25.291605
    2107           0      1646.575928   1301.943726  -27041.46484     22.581488
    2108           0      1646.575928   1301.943726  -27397.56250     20.180872
    2109           0      1646.575928   1301.943726  -27753.66015     18.133121
    2110           0      1646.575928   1301.943726  -28109.75781     16.723013
    2111           0      1646.575928   1301.943726  -28465.85351     16.014956
    2112           0      1646.575928   1301.943604  -28821.95312     15.982029
    2113           0      1568.088867   1395.480957  -14578.05078     87.644974
    2114           0      1568.088867   1395.480957  -14934.14843     94.012459
    2115           0      1568.088867   1395.480957  -15290.24609     89.907410
    2116           0      1568.088867   1395.480957  -15646.34277     89.484871
    2117           0      1568.088867   1395.480957  -16002.44140     88.109299
    2118           0      1568.088867   1395.480957  -16358.53808     86.980446
    2119           0      1568.088867   1395.480957  -16714.63671     85.855164
    2120           0      1568.088867   1395.480957  -17070.73437     84.752159
    2121           0      1568.088867   1395.480957  -17426.83203     83.690384
    2122           0      1568.088867   1395.480957  -17782.92968     82.673355
    2123           0      1568.088867   1395.480957  -18139.02539     81.708488
    2124           0      1568.088867   1395.480957  -18495.12304     80.788696
    2125           0      1568.088867   1395.480957  -18851.22070     79.888817
    2126           0      1568.088867   1395.480957  -19207.31835     78.973091
    2127           0      1568.088867   1395.480957  -19563.41796     77.998222
    2128           0      1568.088867   1395.480957  -19919.51562     76.920303
    2129           0      1568.088867   1395.480957  -20275.61132     75.697350
    2130           0      1568.088867   1395.480957  -20631.70898     74.291733
    2131           0      1568.088867   1395.480957  -20987.80664     72.671326
    2132           0      1568.088867   1395.480957  -21343.90429     70.810394
    2133           0      1568.088867   1395.480957  -21700.00195     68.690681
    2134           0      1568.088867   1395.480957  -22056.09765     66.301895
    2135           0      1568.088867   1395.480957  -22412.19726     63.643105
    2136           0      1568.088867   1395.480957  -22768.29296     60.723118
    2137           0      1568.088867   1395.480957  -23124.39062     57.562145
    2138           0      1568.088867   1395.480957  -23480.48828     54.191463
    2139           0      1568.088867   1395.480957  -23836.58789     50.655251
    2140           0      1568.088867   1395.480957  -24192.68554     47.007729
    2141           0      1568.088867   1395.480957  -24548.78125     43.313538
    2142           0      1568.088867   1395.480957  -24904.87890     39.638176
    2143           0      1568.088867   1395.480957  -25260.97656     36.043011
    2144           0      1568.088867   1395.480957  -25617.07226     32.566742
    2145           0      1568.088867   1395.480957  -25973.17187     29.224405
    2146           0      1568.088867   1395.480957  -26329.26953     26.002041
    2147           0      1568.088867   1395.480957  -26685.36914     22.917538
    2148           0      1568.088867   1395.480957  -27041.46484     19.986286
    2149           0      1568.088867   1395.480957  -27397.56250     17.403488
    2150           0      1568.088867   1395.480957  -27753.66015     15.225997
    2151           0      1568.088867   1395.480957  -28109.75781     13.902328
    2152           0      1568.088867   1395.480957  -28465.85351     13.531510
    2153           0      1568.088867   1395.480957  -28821.95117     13.941194
    2154           0      1484.295898   1484.296265  -14578.05078     91.493347
    2155           0      1484.295898   1484.296265  -14934.14843     98.198334
    2156           0      1484.295898   1484.296265  -15290.24609     93.610641
    2157           0      1484.295898   1484.296265  -15646.34277     93.095985
    2158           0      1484.295898   1484.296265  -16002.44140     91.415398
    2159           0      1484.295898   1484.296265  -16358.53808     90.067924
    2160           0      1484.295898   1484.296265  -16714.63671     88.658875
    2161           0      1484.295898   1484.296265  -17070.73437     87.274574
    2162           0      1484.295898   1484.296265  -17426.83007     85.890770
    2163           0      1484.295898   1484.296265  -17782.92773     84.521439
    2164           0      1484.295898   1484.296265  -18139.02539     83.167633
    2165           0      1484.295898   1484.296265  -18495.12304     81.834671
    2166           0      1484.295898   1484.296265  -18851.22070     80.510063
    2167           0      1484.295898   1484.296265  -19207.31835     79.172264
    2168           0      1484.295898   1484.296265  -19563.41796     77.788490
    2169           0      1484.295898   1484.296265  -19919.51367     76.322495
    2170           0      1484.295898   1484.296265  -20275.61132     74.737823
    2171           0      1484.295898   1484.296265  -20631.70898     73.001396
    2172           0      1484.295776   1484.296265  -20987.80664     71.085503
    2173           0      1484.295776   1484.296265  -21343.90234     68.968964
    2174           0      1484.295776   1484.296265  -21700.00000     66.638107
    2175           0      1484.295776   1484.296265  -22056.09765     64.087112
    2176           0      1484.295776   1484.296265  -22412.19726     61.318882
    2177           0      1484.295776   1484.296265  -22768.29492     58.344925
    2178           0      1484.295776   1484.296265  -23124.39062     55.186420
    2179           0      1484.295776   1484.296265  -23480.48828     51.872906
    2180           0      1484.295776   1484.296265  -23836.58789     48.443283
    2181           0      1484.295776   1484.296265  -24192.68554     44.940945
    2182           0      1484.295776   1484.296265  -24548.78125     41.413765
    2183           0      1484.295776   1484.296265  -24904.87890     37.901688
    2184           0      1484.295776   1484.296265  -25260.97460     34.437069
    2185           0      1484.295776   1484.296265  -25617.07226     31.026564
    2186           0      1484.295776   1484.296265  -25973.17187     27.671730
    2187           0      1484.295776   1484.296265  -26329.26953     24.356239
    2188           0      1484.295776   1484.296387  -26685.36914     21.123825
    2189           0      1484.295776   1484.296387  -27041.46484     17.991505
    2190           0      1484.295776   1484.296387  -27397.56250     15.192707
    2191           0      1484.295776   1484.296387  -27753.66015     12.765983
    2192           0      1484.295776   1484.296387  -28109.75781     11.342566
    2193           0      1484.295776   1484.296387  -28465.85351     11.050666
    2194           0      1484.295776   1484.296387  -28821.94921     11.735301
    2195           0      1395.480469   1568.089111  -14578.05078     96.102318
    2196           0      1395.480469   1568.089111  -14934.14843    103.123306
    2197           0      1395.480469   1568.089111  -15290.24609     97.892548
    2198           0      1395.480469   1568.089111  -15646.34277     97.182854
    2199           0      1395.480469   1568.089111  -16002.44140     95.081352
    2200           0      1395.480469   1568.089111  -16358.53808     93.409126
    2201           0      1395.480469   1568.089111  -16714.63671     91.619148
    2202           0      1395.480469   1568.089111  -17070.73437     89.869621
    2203           0      1395.480469   1568.089233  -17426.83203     88.098572
    2204           0      1395.480469   1568.089233  -17782.92968     86.330490
    2205           0      1395.480469   1568.089233  -18139.02539     84.557167
    2206           0      1395.480469   1568.089233  -18495.12304     82.791161
    2207           0      1395.480469   1568.089233  -18851.22070     81.029190
    2208           0      1395.480469   1568.089233  -19207.31835     79.264320
    2209           0      1395.480469   1568.089233  -19563.41796     77.476700
    2210           0      1395.480469   1568.089233  -19919.51562     75.640556
    2211           0      1395.480469   1568.089233  -20275.61132     73.726341
    2212           0      1395.480469   1568.089233  -20631.70898     71.705322
    2213           0      1395.480469   1568.089233  -20987.80664     69.552338
    2214           0      1395.480469   1568.089233  -21343.90234     67.247810
    2215           0      1395.480469   1568.089233  -21700.00000     64.779106
    2216           0      1395.480469   1568.089233  -22056.09765     62.141148
    2217           0      1395.480469   1568.089233  -22412.19726     59.336903
    2218           0      1395.480469   1568.089233  -22768.29296     56.377136
    2219           0      1395.480469   1568.089233  -23124.39062     53.280659
    2220           0      1395.480469   1568.089233  -23480.48828     50.072456
    2221           0      1395.480469   1568.089233  -23836.58789     46.783485
    2222           0      1395.480469   1568.089233  -24192.68359     43.445095
    2223           0      1395.480469   1568.089233  -24548.78125     40.088280
    2224           0      1395.480469   1568.089233  -24904.87890     36.732410
    2225           0      1395.480469   1568.089233  -25260.97656     33.389416
    2226           0      1395.480469   1568.089233  -25617.07421     30.051199
    2227           0      1395.480469   1568.089233  -25973.17187     26.716969
    2228           0      1395.480469   1568.089233  -26329.26953     23.375076
    2229           0      1395.480469   1568.089233  -26685.36914     20.073137
    2230           0      1395.480469   1568.089233  -27041.46484     16.815254
    2231           0      1395.480469   1568.089233  -27397.56250     13.813187
    2232           0      1395.480469   1568.089233  -27753.66015     11.056866
    2233           0      1395.480469   1568.089233  -28109.75781      9.273788
    2234           0      1395.480225   1568.089233  -28465.85351      8.628829
    2235           0      1395.480469   1568.089233  -28821.95312      9.320423
    2236           0      1301.943237   1646.576172  -14578.05078    101.035225
    2237           0      1301.943237   1646.576172  -14934.14843    108.336021
    2238           0      1301.943237   1646.576172  -15290.24609    102.373016
    2239           0      1301.943237   1646.576172  -15646.34277    101.397346
    2240           0      1301.943237   1646.576172  -16002.44140     98.808990
    2241           0      1301.943237   1646.576172  -16358.53808     96.746544
    2242           0      1301.943237   1646.576172  -16714.63671     94.519943
    2243           0      1301.943237   1646.576172  -17070.73437     92.355621
    2244           0      1301.943237   1646.576172  -17426.83203     90.161697
    2245           0      1301.943237   1646.576172  -17782.92968     87.973419
    2246           0      1301.943237   1646.576172  -18139.02539     85.773819
    2247           0      1301.943237   1646.576172  -18495.12304     83.577812
    2248           0      1301.943237   1646.576172  -18851.22070     81.386482
    2249           0      1301.943237   1646.576172  -19207.31835     79.203888
    2250           0      1301.943237   1646.576172  -19563.41796     77.022919
    2251           0      1301.943237   1646.576172  -19919.51562     74.830208
    2252           0      1301.943237   1646.576172  -20275.61132     72.605728
    2253           0      1301.943237   1646.576172  -20631.70898     70.327072
    2254           0      1301.943237   1646.576172  -20987.80664     67.972229
    2255           0      1301.943237   1646.576172  -21343.90429     65.522514
    2256           0      1301.943237   1646.576172  -21700.00195     62.964489
    2257           0      1301.943237   1646.576172  -22056.09765     60.291187
    2258           0      1301.943237   1646.576172  -22412.19726     57.502789
    2259           0      1301.943237   1646.576172  -22768.29296     54.606377
    2260           0      1301.943237   1646.576172  -23124.39062     51.615585
    2261           0      1301.943237   1646.576172  -23480.48828     48.548588
    2262           0      1301.943237   1646.576172  -23836.58789     45.426617
    2263           0      1301.943237   1646.576172  -24192.68554     42.269077
    2264           0      1301.943237   1646.576172  -24548.78125     39.092010
    2265           0      1301.943237   1646.576172  -24904.87890     35.901077
    2266           0      1301.943237   1646.576172  -25260.97656     32.696533
    2267           0      1301.943237   1646.576172  -25617.07226     29.468388
    2268           0      1301.943237   1646.576172  -25973.17187     26.216681
    2269           0      1301.943237   1646.576172  -26329.26953     22.938066
    2270           0      1301.943237   1646.576172  -26685.36914     19.668331
    2271           0      1301.943237   1646.576172  -27041.46484     16.406630
    2272           0      1301.943237   1646.576172  -27397.56250     13.299218
    2273           0      1301.943237   1646.576172  -27753.66015     10.293303
    2274           0      1301.943237   1646.576172  -28109.75781      8.001841
    2275           0      1301.943237   1646.576172  -28465.85351      6.546561
    2276           0      1301.943237   1646.576172  -28821.95117      6.824378
    2277           0      1204.000732   1719.491699  -14578.05078    105.894264
    2278           0      1204.000732   1719.491699  -14934.14843    113.429512
    2279           0      1204.000732   1719.491699  -15290.24609    106.713058
    2280           0      1204.000732   1719.491699  -15646.34277    105.433121
    2281           0      1204.000732   1719.491699  -16002.44140    102.339836
    2282           0      1204.000732   1719.491699  -16358.53808     99.861755
    2283           0      1204.000732   1719.491699  -16714.63671     97.183800
    2284           0      1204.000732   1719.491699  -17070.73437     94.590523
    2285           0      1204.000732   1719.491699  -17426.83007     91.968353
    2286           0      1204.000732   1719.491699  -17782.92773     89.362579
    2287           0      1204.000732   1719.491699  -18139.02539     86.750435
    2288           0      1204.000732   1719.491699  -18495.12304     84.146423
    2289           0      1204.000732   1719.491699  -18851.22070     81.551819
    2290           0      1204.000732   1719.491699  -19207.31835     78.976189
    2291           0      1204.000732   1719.491699  -19563.41796     76.421776
    2292           0      1204.000732   1719.491699  -19919.51367     73.886711
    2293           0      1204.000732   1719.491699  -20275.61132     71.362015
    2294           0      1204.000732   1719.491699  -20631.70898     68.834099
    2295           0      1204.000732   1719.491699  -20987.80664     66.286819
    2296           0      1204.000732   1719.491699  -21343.90234     63.704277
    2297           0      1204.000732   1719.491699  -21700.00000     61.073112
    2298           0      1204.000732   1719.491699  -22056.09765     58.384319
    2299           0      1204.000732   1719.491699  -22412.19726     55.634151
    2300           0      1204.000732   1719.491699  -22768.29492     52.824276
    2301           0      1204.000732   1719.491699  -23124.39062     49.961067
    2302           0      1204.000732   1719.491699  -23480.48828     47.053951
    2303           0      1204.000732   1719.491699  -23836.58789     44.113209
    2304           0      1204.000732   1719.491699  -24192.68554     41.146824
    2305           0      1204.000732   1719.491699  -24548.78125     38.158726
    2306           0      1204.000732   1719.491699  -24904.87890     35.146976
    2307           0      1204.000732   1719.491699  -25260.97460     32.106724
    2308           0      1204.000732   1719.491699  -25617.07226     29.032854
    2309           0      1204.000732   1719.491699  -25973.17187     25.926090
    2310           0      1204.000732   1719.491699  -26329.26953     22.793566
    2311           0      1204.000732   1719.491699  -26685.36914     19.653629
    2312           0      1204.000732   1719.491699  -27041.46484     16.517036
    2313           0      1204.000732   1719.491699  -27397.56250     13.453683
    2314           0      1204.000732   1719.491699  -27753.66015     10.426305
    2315           0      1204.000732   1719.491699  -28109.75781      7.776148
    2316           0      1204.000732   1719.491699  -28465.85351      5.468174
    2317           0      1204.000732   1719.491699  -28821.94921      4.675459
    2318           0      1101.984131   1786.588989  -14578.05078    110.347603
    2319           0      1101.984131   1786.588989  -14934.14843    118.068993
    2320           0      1101.984131   1786.588989  -15290.24609    110.635666
    2321           0      1101.984131   1786.588989  -15646.34277    109.044746
    2322           0      1101.984131   1786.588989  -16002.44140    105.470009
    2323           0      1101.984131   1786.588989  -16358.53808    102.587303
    2324           0      1101.984131   1786.588989  -16714.63671     99.479904
    2325           0      1101.984131   1786.588989  -17070.73437     96.476990
    2326           0      1101.984131   1786.588989  -17426.83203     93.450607
    2327           0      1101.984131   1786.588989  -17782.92968     90.454155
    2328           0      1101.984131   1786.588989  -18139.02539     87.462448
    2329           0      1101.984131   1786.588989  -18495.12304     84.489243
    2330           0      1101.984131   1786.588989  -18851.22070     81.533897
    2331           0      1101.984131   1786.588989  -19207.31835     78.606972
    2332           0      1101.984131   1786.588989  -19563.41796     75.715096
    2333           0      1101.984131   1786.588989  -19919.51562     72.864410
    2334           0      1101.984131   1786.588989  -20275.61132     70.055618
    2335           0      1101.984131   1786.588989  -20631.70898     67.284996
    2336           0      1101.984131   1786.588989  -20987.80664     64.544525
    2337           0      1101.984131   1786.588989  -21343.90234     61.823975
    2338           0      1101.984131   1786.588989  -21700.00000     59.112621
    2339           0      1101.984131   1786.588989  -22056.09765     56.401196
    2340           0      1101.984131   1786.588989  -22412.19726     53.682831
    2341           0      1101.984131   1786.588989  -22768.29296     50.953712
    2342           0      1101.984131   1786.588989  -23124.39062     48.212257
    2343           0      1101.984131   1786.588989  -23480.48828     45.458504
    2344           0      1101.984131   1786.588989  -23836.58789     42.691921
    2345           0      1101.984131   1786.588989  -24192.68359     39.910740
    2346           0      1101.984131   1786.588989  -24548.78125     37.110226
    2347           0      1101.984131   1786.588989  -24904.87890     34.285507
    2348           0      1101.984131   1786.588989  -25260.97656     31.430618
    2349           0      1101.984131   1786.588989  -25617.07421     28.547266
    2350           0      1101.984131   1786.588989  -25973.17187     25.635904
    2351           0      1101.984131   1786.588989  -26329.26953     22.713871
    2352           0      1101.984131   1786.588989  -26685.36914     19.783043
    2353           0      1101.984131   1786.588989  -27041.46484     16.875921
    2354           0      1101.984131   1786.588989  -27397.56250     13.995909
    2355           0      1101.984131   1786.588989  -27753.66015     11.176552
    2356           0      1101.984131   1786.588989  -28109.75781      8.487370
    2357           0      1101.984131   1786.588989  -28465.85351      5.976841
    2358           0      1101.984131   1786.588989  -28821.95312      3.872047
    2359           0       996.238892   1847.641113  -14578.05078    114.150993
    2360           0       996.238892   1847.641113  -14934.14843    122.007599
    2361           0       996.238892   1847.641113  -15290.24609    113.942314
    2362           0       996.238892   1847.641113  -15646.34277    112.058342
    2363           0       996.238892   1847.641113  -16002.44140    108.059601
    2364           0       996.238892   1847.641113  -16358.53808    104.812256
    2365           0       996.238892   1847.641113  -16714.63671    101.327263
    2366           0       996.238892   1847.641113  -17070.73437     97.961861
    2367           0       996.238892   1847.641113  -17426.83203     94.581352
    2368           0       996.238892   1847.641113  -17782.92968     91.243294
    2369           0       996.238892   1847.641113  -18139.02539     87.923477
    2370           0       996.238892   1847.641113  -18495.12304     84.635002
    2371           0       996.238892   1847.641113  -18851.22070     81.375938
    2372           0       996.238892   1847.641113  -19207.31835     78.155220
    2373           0       996.238892   1847.641113  -19563.41796     74.980064
    2374           0       996.238892   1847.641113  -19919.51562     71.859955
    2375           0       996.238892   1847.641113  -20275.61132     68.801842
    2376           0       996.238892   1847.641113  -20631.70898     65.809906
    2377           0       996.238892   1847.641113  -20987.80664     62.884327
    2378           0       996.238892   1847.641113  -21343.90429     60.021915
    2379           0       996.238892   1847.641113  -21700.00195     57.216793
    2380           0       996.238892   1847.641113  -22056.09765     54.461750
    2381           0       996.238892   1847.641113  -22412.19726     51.748852
    2382           0       996.238892   1847.641113  -22768.29296     49.070347
    2383           0       996.238892   1847.641113  -23124.39062     46.418324
    2384           0       996.238892   1847.641113  -23480.48828     43.785023
    2385           0       996.238892   1847.641113  -23836.58789     41.161629
    2386           0       996.238892   1847.641113  -24192.68554     38.539764
    2387           0       996.238892   1847.641113  -24548.78125     35.910110
    2388           0       996.238892   1847.641113  -24904.87890     33.267746
    2389           0       996.238892   1847.641113  -25260.97656     30.607616
    2390           0       996.238892   1847.641113  -25617.07226     27.936655
    2391           0       996.238892   1847.641113  -25973.17187     25.254246
    2392           0       996.238892   1847.641113  -26329.26953     22.584591
    2393           0       996.238892   1847.641113  -26685.36914     19.916986
    2394           0       996.238892   1847.641113  -27041.46484     17.304264
    2395           0       996.238892   1847.641113  -27397.56250     14.699489
    2396           0       996.238892   1847.641113  -27753.66015     12.217978
    2397           0       996.238892   1847.641113  -28109.75781      9.712652
    2398           0       996.238892   1847.641113  -28465.85351      7.546131
    2399           0       996.238892   1847.641113  -28821.95117      4.908239
    2400           0       887.122559   1902.441284  -14578.05078    117.151901
    2401           0       887.122559   1902.441284  -14934.14843    125.096405
    2402           0       887.122559   1902.441284  -15290.24609    116.514473
    2403           0       887.122559   1902.441284  -15646.34277    114.374992
    2404           0       887.122559   1902.441284  -16002.44140    110.031906
    2405           0       887.122559   1902.441284  -16358.53808    106.480568
    2406           0       887.122559   1902.441284  -16714.63671    102.690262
    2407           0       887.122559   1902.441284  -17070.73437     99.029495
    2408           0       887.122559   1902.441284  -17426.83007     95.364212
    2409           0       887.122559   1902.441284  -17782.92773     91.751465
    2410           0       887.122559   1902.441284  -18139.02539     88.170418
    2411           0       887.122559   1902.441284  -18495.12304     84.633484
    2412           0       887.122559   1902.441284  -18851.22070     81.139000
    2413           0       887.122559   1902.441284  -19207.31835     77.693802
    2414           0       887.122559   1902.441284  -19563.41796     74.303864
    2415           0       887.122559   1902.441284  -19919.51367     70.978401
    2416           0       887.122559   1902.441284  -20275.61132     67.726448
    2417           0       887.122559   1902.441284  -20631.70898     64.556290
    2418           0       887.122559   1902.441284  -20987.80664     61.473667
    2419           0       887.122559   1902.441284  -21343.90234     58.481232
    2420           0       887.122559   1902.441284  -21700.00000     55.578194
    2421           0       887.122559   1902.441284  -22056.09765     52.760632
    2422           0       887.122559   1902.441284  -22412.19726     50.021816
    2423           0       887.122559   1902.441284  -22768.29492     47.352837
    2424           0       887.122559   1902.441284  -23124.39062     44.742939
    2425           0       887.122498   1902.441284  -23480.48828     42.180492
    2426           0       887.122498   1902.441284  -23836.58789     39.652981
    2427           0       887.122498   1902.441284  -24192.68554     37.149689
    2428           0       887.122498   1902.441284  -24548.78125     34.660591
    2429           0       887.122498   1902.441284  -24904.87890     32.182087
    2430           0       887.122498   1902.441284  -25260.97460     29.710449
    2431           0       887.122498   1902.441284  -25617.07226     27.254435
    2432           0       887.122498   1902.441284  -25973.17187     24.811787
    2433           0       887.122498   1902.441284  -26329.26953     22.408102
    2434           0       887.122498   1902.441284  -26685.36914     20.024534
    2435           0       887.122498   1902.441284  -27041.46484     17.724129
    2436           0       887.122498   1902.441284  -27397.56250     15.426484
    2437           0       887.122498   1902.441284  -27753.66015     13.306136
    2438           0       887.122498   1902.441284  -28109.75781     11.057069
    2439           0       887.122498   1902.441284  -28465.85351      9.350579
    2440           0       887.122498   1902.441284  -28821.94921      6.628687
    2441           0       775.004578   1950.804199  -14578.05078    119.290306
    2442           0       775.004578   1950.804199  -14934.14843    127.279831
    2443           0       775.004578   1950.804199  -15290.24609    118.311050
    2444           0       775.004578   1950.804199  -15646.34277    115.965378
    2445           0       775.004578   1950.804199  -16002.44140    111.367912
    2446           0       775.004578   1950.804199  -16358.53808    107.584579
    2447           0       775.004578   1950.804199  -16714.63671    103.570923
    2448           0       775.004578   1950.804199  -17070.73437     99.692451
    2449           0       775.004578   1950.804199  -17426.83203     95.821808
    2450           0       775.004578   1950.804199  -17782.92968     92.011658
    2451           0       775.004578   1950.804199  -18139.02539     88.245590
    2452           0       775.004578   1950.804199  -18495.12304     84.535011
    2453           0       775.004578   1950.804199  -18851.22070     80.879570
    2454           0       775.004578   1950.804199  -19207.31835     77.284714
    2455           0       775.004578   1950.804199  -19563.41796     73.754921
    2456           0       775.004578   1950.804199  -19919.51562     70.297356
    2457           0       775.004578   1950.804199  -20275.61132     66.919975
    2458           0       775.004578   1950.804199  -20631.70898     63.631287
    2459           0       775.004578   1950.804199  -20987.80664     60.438683
    2460           0       775.004578   1950.804199  -21343.90234     57.347641
    2461           0       775.004517   1950.804199  -21700.00000     54.360607
    2462           0       775.004517   1950.804199  -22056.09765     51.476715
    2463           0       775.004517   1950.804199  -22412.19726     48.691673
    2464           0       775.004517   1950.804199  -22768.29296     45.998249
    2465           0       775.004517   1950.804199  -23124.39062     43.386765
    2466           0       775.004517   1950.804199  -23480.48828     40.846455
    2467           0       775.004517   1950.804199  -23836.58789     38.366089
    2468           0       775.004517   1950.804199  -24192.68359     35.936615
    2469           0       775.004517   1950.804199  -24548.78125     33.550224
    2470           0       775.004517   1950.804199  -24904.87890     31.204788
    2471           0       775.004517   1950.804199  -25260.97656     28.897461
    2472           0       775.004517   1950.804199  -25617.07421     26.635454
    2473           0       775.004517   1950.804199  -25973.17187     24.414625
    2474           0       775.004517   1950.804199  -26329.26953     22.256361
    2475           0       775.004517   1950.804199  -26685.36914     20.137745
    2476           0       775.004517   1950.804199  -27041.46484     18.119408
    2477           0       775.004517   1950.804199  -27397.56250     16.104292
    2478           0       775.004517   1950.804199  -27753.66015     14.294094
    2479           0       775.004517   1950.804199  -28109.75781     12.283077
    2480           0       775.004517   1950.804199  -28465.85351     10.968267
    2481           0       775.004517   1950.804199  -28821.95312      8.254920
    2482           0       660.264221   1992.566406  -14578.05078    120.586823
    2483           0       660.264221   1992.566406  -14934.14843    128.584305
    2484           0       660.264221   1992.566406  -15290.24609    119.357887
    2485           0       660.264221   1992.566406  -15646.34277    116.859383
    2486           0       660.264221   1992.566406  -16002.44140    112.096596
    2487           0       660.264221   1992.566406  -16358.53808    108.154892
    2488           0       660.264221   1992.566406  -16714.63671    103.999313
    2489           0       660.264221   1992.566406  -17070.73437     99.981346
    2490           0       660.264221   1992.566406  -17426.83203     95.984856
    2491           0       660.264221   1992.566406  -17782.92968     92.055328
    2492           0       660.264221   1992.566406  -18139.02539     88.181244
    2493           0       660.264221   1992.566406  -18495.12304     84.372063
    2494           0       660.264221   1992.566406  -18851.22070     80.629242
    2495           0       660.264221   1992.566406  -19207.31835     76.957176
    2496           0       660.264221   1992.566406  -19563.41796     73.359428
    2497           0       660.264221   1992.566406  -19919.51562     69.840721
    2498           0       660.264221   1992.566406  -20275.61132     66.406540
    2499           0       660.264221   1992.566406  -20631.70898     63.062992
    2500           0       660.264221   1992.566406  -20987.80664     59.816097
    2501           0       660.264221   1992.566406  -21343.90429     56.670906
    2502           0       660.264221   1992.566406  -21700.00195     53.630630
    2503           0       660.264221   1992.566406  -22056.09765     50.696117
    2504           0       660.264221   1992.566406  -22412.19726     47.865620
    2505           0       660.264221   1992.566406  -22768.29296     45.135059
    2506           0       660.264221   1992.566406  -23124.39062     42.498528
    2507           0       660.264221   1992.566406  -23480.48828     39.949444
    2508           0       660.264221   1992.566406  -23836.58789     37.481121
    2509           0       660.264221   1992.566406  -24192.68554     35.088451
    2510           0       660.264221   1992.566406  -24548.78125     32.767128
    2511           0       660.264221   1992.566406  -24904.87890     30.516064
    2512           0       660.264221   1992.566406  -25260.97656     28.332840
    2513           0       660.264221   1992.566406  -25617.07226     26.221132
    2514           0       660.264221   1992.566406  -25973.17187     24.175447
    2515           0       660.264221   1992.566406  -26329.26953     22.209274
    2516           0       660.264221   1992.566406  -26685.36914     20.299664
    2517           0       660.264160   1992.566406  -27041.46484     18.495230
    2518           0       660.264160   1992.566406  -27397.56250     16.698402
    2519           0       660.264160   1992.566406  -27753.66015     15.110710
    2520           0       660.264160   1992.566406  -28109.75781     13.282201
    2521           0       660.264160   1992.566406  -28465.85351     12.246829
    2522           0       660.264221   1992.566406  -28821.95117      9.555297
    2523           0       543.289673   2027.586182  -14578.05078    121.125198
    2524           0       543.289673   2027.586182  -14934.14843    129.099350
    2525           0       543.289673   2027.586182  -15290.24609    119.731102
    2526           0       543.289673   2027.586182  -15646.34277    117.130524
    2527           0       543.289673   2027.586182  -16002.44140    112.281158
    2528           0       543.289673   2027.586182  -16358.53808    108.247993
    2529           0       543.289673   2027.586182  -16714.63671    104.022514
    2530           0       543.289673   2027.586182  -17070.73437     99.934868
    2531           0       543.289673   2027.586182  -17426.83007     95.882950
    2532           0       543.289673   2027.586182  -17782.92773     91.903519
    2533           0       543.289673   2027.586182  -18139.02539     87.989830
    2534           0       543.289673   2027.586182  -18495.12304     84.148689
    2535           0       543.289673   2027.586182  -18851.22070     80.382896
    2536           0       543.289673   2027.586182  -19207.31835     76.695839
    2537           0       543.289673   2027.586182  -19563.41796     73.090454
    2538           0       543.289673   2027.586182  -19919.51367     69.569427
    2539           0       543.289673   2027.586182  -20275.61132     66.135635
    2540           0       543.289673   2027.586182  -20631.70898     62.792130
    2541           0       543.289673   2027.586182  -20987.80664     59.542095
    2542           0       543.289673   2027.586182  -21343.90234     56.388435
    2543           0       543.289673   2027.586182  -21700.00000     53.333359
    2544           0       543.289673   2027.586182  -22056.09765     50.378071
    2545           0       543.289673   2027.586182  -22412.19726     47.522614
    2546           0       543.289673   2027.586182  -22768.29492     44.766010
    2547           0       543.289673   2027.586182  -23124.39062     42.106594
    2548           0       543.289673   2027.586182  -23480.48828     39.542564
    2549           0       543.289673   2027.586182  -23836.58789     37.072216
    2550           0       543.289673   2027.586182  -24192.68554     34.694389
    2551           0       543.289673   2027.586182  -24548.78125     32.407887
    2552           0       543.289673   2027.586182  -24904.87890     30.212126
    2553           0       543.289673   2027.586182  -25260.97460     28.105124
    2554           0       543.289673   2027.586182  -25617.07226     26.086876
    2555           0       543.289673   2027.586182  -25973.17187     24.152010
    2556           0       543.289673   2027.586182  -26329.26953     22.305531
    2557           0       543.289673   2027.586182  -26685.36914     20.528503
    2558           0       543.289673   2027.586182  -27041.46484     18.853672
    2559           0       543.289673   2027.586182  -27397.56250     17.195879
    2560           0       543.289673   2027.586182  -27753.66015     15.738819
    2561           0       543.289673   2027.586182  -28109.75781     14.031527
    2562           0       543.289673   2027.586182  -28465.85351     13.169220
    2563           0       543.289673   2027.586182  -28821.94921     10.501399
    2564           0       424.476898   2055.745361  -14578.05078    121.029755
    2565           0       424.476898   2055.745361  -14934.14843    128.953995
    2566           0       424.476898   2055.745361  -15290.24609    119.538475
    2567           0       424.476898   2055.745361  -15646.34277    116.878632
    2568           0       424.476898   2055.745361  -16002.44140    112.004730
    2569           0       424.476898   2055.745361  -16358.53808    107.934219
    2570           0       424.476898   2055.745361  -16714.63671    103.695000
    2571           0       424.476898   2055.745361  -17070.73437     99.592522
    2572           0       424.476898   2055.745361  -17426.83203     95.539589
    2573           0       424.476898   2055.745361  -17782.92968     91.563850
    2574           0       424.476898   2055.745361  -18139.02539     87.662941
    2575           0       424.476898   2055.745361  -18495.12304     83.840515
    2576           0       424.476898   2055.745361  -18851.22070     80.100113
    2577           0       424.476898   2055.745361  -19207.31835     76.443779
    2578           0       424.476898   2055.745361  -19563.41796     72.873795
    2579           0       424.476898   2055.745361  -19919.51562     69.391243
    2580           0       424.476898   2055.745361  -20275.61132     65.997047
    2581           0       424.476898   2055.745361  -20631.70898     62.691753
    2582           0       424.476898   2055.745361  -20987.80664     59.475899
    2583           0       424.476898   2055.745361  -21343.90234     56.350132
    2584           0       424.476898   2055.745361  -21700.00000     53.315174
    2585           0       424.476898   2055.745361  -22056.09765     50.371849
    2586           0       424.476898   2055.745361  -22412.19726     47.521049
    2587           0       424.476898   2055.745361  -22768.29296     44.763821
    2588           0       424.476898   2055.745361  -23124.39062     42.101402
    2589           0       424.476898   2055.745361  -23480.48828     39.535206
    2590           0       424.476898   2055.745361  -23836.58789     37.066746
    2591           0       424.476898   2055.745361  -24192.68359     34.697151
    2592           0       424.476898   2055.745361  -24548.78125     32.427094
    2593           0       424.476898   2055.745361  -24904.87890     30.256010
    2594           0       424.476898   2055.745361  -25260.97656     28.182722
    2595           0       424.476898   2055.745361  -25617.07421     26.204769
    2596           0       424.476898   2055.745361  -25973.17187     24.318687
    2597           0       424.476898   2055.745361  -26329.26953     22.523014
    2598           0       424.476898   2055.745361  -26685.36914     20.806070
    2599           0       424.476898   2055.745361  -27041.46484     19.185778
    2600           0       424.476898   2055.745361  -27397.56250     17.596891
    2601           0       424.476898   2055.745361  -27753.66015     16.197128
    2602           0       424.476898   2055.745361  -28109.75781     14.561130
    2603           0       424.476898   2055.745361  -28465.85351     13.790143
    2604           0       424.476898   2055.745361  -28821.95312     11.149611
    2605           0       304.227783   2076.948730  -14578.05078    120.440239
    2606           0       304.227783   2076.948730  -14934.14843    128.291794
    2607           0       304.227783   2076.948730  -15290.24609    118.898445
    2608           0       304.227783   2076.948730  -15646.34277    116.211571
    2609           0       304.227783   2076.948730  -16002.44140    111.355461
    2610           0       304.227783   2076.948730  -16358.53808    107.285873
    2611           0       304.227783   2076.948730  -16714.63671    103.070152
    2612           0       304.227783   2076.948730  -17070.73437     98.989357
    2613           0       304.227783   2076.948730  -17426.83203     94.970352
    2614           0       304.227783   2076.948730  -17782.92968     91.032211
    2615           0       304.227783   2076.948730  -18139.02539     87.176453
    2616           0       304.227783   2076.948730  -18495.12304     83.403442
    2617           0       304.227783   2076.948730  -18851.22070     79.717064
    2618           0       304.227783   2076.948730  -19207.31835     76.117653
    2619           0       304.227783   2076.948730  -19563.41796     72.606834
    2620           0       304.227783   2076.948730  -19919.51562     69.184395
    2621           0       304.227783   2076.948730  -20275.61132     65.850060
    2622           0       304.227783   2076.948730  -20631.70898     62.602776
    2623           0       304.227783   2076.948730  -20987.80664     59.441570
    2624           0       304.227783   2076.948730  -21343.90429     56.365559
    2625           0       304.227783   2076.948730  -21700.00195     53.374416
    2626           0       304.227783   2076.948730  -22056.09765     50.468422
    2627           0       304.227783   2076.948730  -22412.19726     47.648636
    2628           0       304.227783   2076.948730  -22768.29296     44.916786
    2629           0       304.227783   2076.948730  -23124.39062     42.275173
    2630           0       304.227783   2076.948730  -23480.48828     39.726231
    2631           0       304.227783   2076.948730  -23836.58789     37.272419
    2632           0       304.227783   2076.948730  -24192.68554     34.915279
    2633           0       304.227783   2076.948730  -24548.78125     32.656078
    2634           0       304.227783   2076.948730  -24904.87890     30.494047
    2635           0       304.227783   2076.948730  -25260.97656     28.429125
    2636           0       304.227783   2076.948730  -25617.07226     26.457886
    2637           0       304.227783   2076.948730  -25973.17187     24.579975
    2638           0       304.227783   2076.948730  -26329.26953     22.790312
    2639           0       304.227783   2076.948730  -26685.36914     21.085772
    2640           0       304.227783   2076.948730  -27041.46484     19.473150
    2641           0       304.227783   2076.948730  -27397.56250     17.908310
    2642           0       304.227783   2076.948730  -27753.66015     16.522848
    2643           0       304.227783   2076.948730  -28109.75781     14.927057
    2644           0       304.227783   2076.948730  -28465.85351     14.196203
    2645           0       304.227783   2076.948730  -28821.95117     11.590311
    2646           0       182.949219   2091.124023  -14578.05078    119.486961
    2647           0       182.949219   2091.124023  -14934.14843    127.247528
    2648           0       182.949219   2091.124023  -15290.24609    117.920128
    2649           0       182.949219   2091.124023  -15646.34277    115.228722
    2650           0       182.949219   2091.124023  -16002.44140    110.413094
    2651           0       182.949219   2091.124023  -16358.53808    106.367584
    2652           0       182.949219   2091.124023  -16714.63671    102.193855
    2653           0       182.949219   2091.124023  -17070.73437     98.153442
    2654           0       182.949203   2091.124023  -17426.83007     94.183907
    2655           0       182.949188   2091.124023  -17782.92773     90.297989
    2656           0       182.949188   2091.124023  -18139.02539     86.499794
    2657           0       182.949188   2091.124023  -18495.12304     82.787239
    2658           0       182.949188   2091.124023  -18851.22070     79.164108
    2659           0       182.949188   2091.124023  -19207.31835     75.629303
    2660           0       182.949188   2091.124023  -19563.41796     72.183739
    2661           0       182.949188   2091.124023  -19919.51367     68.826279
    2662           0       182.949188   2091.124023  -20275.61132     65.555977
    2663           0       182.949188   2091.124023  -20631.70898     62.371124
    2664           0       182.949158   2091.124023  -20987.80664     59.270100
    2665           0       182.949158   2091.124023  -21343.90234     56.251438
    2666           0       182.949158   2091.124023  -21700.00000     53.314301
    2667           0       182.949158   2091.124023  -22056.09765     50.458622
    2668           0       182.949158   2091.124023  -22412.19726     47.685268
    2669           0       182.949158   2091.124023  -22768.29492     44.995785
    2670           0       182.949158   2091.124023  -23124.39062     42.392254
    2671           0       182.949142   2091.124023  -23480.48828     39.876675
    2672           0       182.949127   2091.124023  -23836.58789     37.451019
    2673           0       182.949127   2091.124023  -24192.68554     35.116238
    2674           0       182.949127   2091.124023  -24548.78125     32.873405
    2675           0       182.949127   2091.124023  -24904.87890     30.721615
    2676           0       182.949127   2091.124023  -25260.97460     28.661795
    2677           0       182.949127   2091.124023  -25617.07226     26.690605
    2678           0       182.949127   2091.124023  -25973.17187     24.810661
    2679           0       182.949127   2091.124023  -26329.26953     23.015697
    2680           0       182.949127   2091.124023  -26685.36914     21.309681
    2681           0       182.949112   2091.124023  -27041.46484     19.692869
    2682           0       182.949097   2091.124023  -27397.56250     18.137531
    2683           0       182.949097   2091.124023  -27753.66015     16.755356
    2684           0       182.949097   2091.124023  -28109.75781     15.188198
    2685           0       182.949097   2091.124023  -28465.85351     14.475425
    2686           0       182.949158   2091.124023  -28821.94921     11.914536
    2687           0        61.051674   2098.223633  -14578.05078    118.272369
    2688           0        61.051666   2098.223633  -14934.14843    125.925774
    2689           0        61.051662   2098.223633  -15290.24609    116.689125
    2690           0        61.051662   2098.223633  -15646.34277    114.007111
    2691           0        61.051662   2098.223633  -16002.44140    109.239769
    2692           0        61.051659   2098.223633  -16358.53808    105.229126
    2693           0        61.051655   2098.223633  -16714.63671    101.101334
    2694           0        61.051655   2098.223633  -17070.73437     97.105736
    2695           0        61.051651   2098.223633  -17426.83203     93.185974
    2696           0        61.051643   2098.223633  -17782.92968     89.351448
    2697           0        61.051643   2098.223633  -18139.02539     85.607483
    2698           0        61.051636   2098.223633  -18495.12304     81.950783
    2699           0        61.051632   2098.223633  -18851.22070     78.384888
    2700           0        61.051632   2098.223633  -19207.31835     74.907967
    2701           0        61.051632   2098.223633  -19563.41796     71.520416
    2702           0        61.051628   2098.223633  -19919.51562     68.220634
    2703           0        61.051620   2098.223633  -20275.61132     65.007378
    2704           0        61.051620   2098.223633  -20631.70898     61.878750
    2705           0        61.051613   2098.223633  -20987.80664     58.833000
    2706           0        61.051609   2098.223633  -21343.90234     55.868546
    2707           0        61.051609   2098.223633  -21700.00000     52.984394
    2708           0        61.051609   2098.223633  -22056.09765     50.180347
    2709           0        61.051605   2098.223633  -22412.19726     47.457043
    2710           0        61.051598   2098.223633  -22768.29296     44.815666
    2711           0        61.051598   2098.223633  -23124.39062     42.257820
    2712           0        61.051590   2098.223633  -23480.48828     39.784851
    2713           0        61.051586   2098.223633  -23836.58789     37.398052
    2714           0        61.051586   2098.223633  -24192.68359     35.097775
    2715           0        61.051586   2098.223633  -24548.78125     32.884796
    2716           0        61.051582   2098.223633  -24904.87890     30.758131
    2717           0        61.051579   2098.223633  -25260.97656     28.719278
    2718           0        61.051579   2098.223633  -25617.07421     26.765249
    2719           0        61.051575   2098.223633  -25973.17187     24.900356
    2720           0        61.051567   2098.223633  -26329.26953     23.118330
    2721           0        61.051567   2098.223633  -26685.36914     21.426790
    2722           0        61.051559   2098.223633  -27041.46484     19.823458
    2723           0        61.051556   2098.223633  -27397.56250     18.288715
    2724           0        61.051556   2098.223633  -27753.66015     16.923855
    2725           0        61.051556   2098.223633  -28109.75781     15.389566
    2726           0        61.051552   2098.223633  -28465.85351     14.694609
    2727           0        61.051609   2098.223633  -28821.95312     12.190582
    2728           0       -61.052467   2098.223633  -14578.05078    116.855675
    2729           0       -61.052467   2098.223633  -14934.14843    124.386406
    2730           0       -61.052467   2098.223633  -15290.24609    115.255402
    2731           0       -61.052467   2098.223633  -15646.34277    112.591675
    2732           0       -61.052467   2098.223633  -16002.44140    107.872581
    2733           0       -61.052467   2098.223633  -16358.53808    103.900627
    2734           0       -61.052467   2098.223633  -16714.63671     99.814812
    2735           0       -61.052467   2098.223633  -17070.73437     95.860413
    2736           0       -61.052467   2098.223633  -17426.83203     91.982399
    2737           0       -61.052467   2098.223633  -17782.92968     88.189758
    2738           0       -61.052467   2098.223633  -18139.02539     84.487991
    2739           0       -61.052467   2098.223633  -18495.12304     80.873756
    2740           0       -61.052467   2098.223633  -18851.22070     77.350700
    2741           0       -61.052467   2098.223633  -19207.31835     73.916924
    2742           0       -61.052467   2098.223633  -19563.41796     70.572853
    2743           0       -61.052467   2098.223633  -19919.51562     67.316910
    2744           0       -61.052467   2098.223633  -20275.61132     64.147858
    2745           0       -61.052467   2098.223633  -20631.70898     61.063808
    2746           0       -61.052467   2098.223633  -20987.80664     58.062992
    2747           0       -61.052467   2098.223633  -21343.90429     55.143826
    2748           0       -61.052467   2098.223633  -21700.00195     52.305328
    2749           0       -61.052467   2098.223633  -22056.09765     49.547241
    2750           0       -61.052467   2098.223633  -22412.19726     46.870155
    2751           0       -61.052467   2098.223633  -22768.29296     44.275238
    2752           0       -61.052467   2098.223633  -23124.39062     41.764030
    2753           0       -61.052467   2098.223633  -23480.48828     39.337887
    2754           0       -61.052467   2098.223633  -23836.58789     36.998066
    2755           0       -61.052467   2098.223633  -24192.68554     34.744888
    2756           0       -61.052467   2098.223633  -24548.78125     32.579132
    2757           0       -61.052467   2098.223633  -24904.87890     30.499794
    2758           0       -61.052467   2098.223633  -25260.97656     28.508322
    2759           0       -61.052467   2098.223633  -25617.07226     26.601805
    2760           0       -61.052467   2098.223633  -25973.17187     24.784330
    2761           0       -61.052467   2098.223633  -26329.26953     23.049881
    2762           0       -61.052467   2098.223633  -26685.36914     21.405357
    2763           0       -61.052467   2098.223633  -27041.46484     19.849106
    2764           0       -61.052467   2098.223633  -27397.56250     18.360079
    2765           0       -61.052467   2098.223633  -27753.66015     17.039513
    2766           0       -61.052467   2098.223633  -28109.75781     15.551013
    2767           0       -61.052467   2098.223633  -28465.85351     14.885114
    2768           0       -61.052467   2098.223633  -28821.95117     12.449806
    2769           0      -182.950089   2091.124023  -14578.05078    115.243980
    2770           0      -182.950089   2091.124023  -14934.14843    122.637291
    2771           0      -182.950104   2091.124023  -15290.24609    113.626488
    2772           0      -182.950104   2091.124023  -15646.34277    110.990173
    2773           0      -182.950104   2091.124023  -16002.44140    106.319252
    2774           0      -182.950104   2091.124023  -16358.53808    102.389786
    2775           0      -182.950104   2091.124023  -16714.63671     98.342041
    2776           0      -182.950104   2091.124023  -17070.73437     94.425133
    2777           0      -182.950119   2091.124023  -17426.83007     90.580742
    2778           0      -182.950119   2091.124023  -17782.92773     86.820305
    2779           0      -182.950119   2091.124023  -18139.02539     83.148476
    2780           0      -182.950119   2091.124023  -18495.12304     79.563057
    2781           0      -182.950134   2091.124023  -18851.22070     76.068016
    2782           0      -182.950134   2091.124023  -19207.31835     72.662231
    2783           0      -182.950134   2091.124023  -19563.41796     69.346687
    2784           0      -182.950134   2091.124023  -19919.51367     66.120255
    2785           0      -182.950134   2091.124023  -20275.61132     62.982075
    2786           0      -182.950134   2091.124023  -20631.70898     59.930458
    2787           0      -182.950150   2091.124023  -20987.80664     56.963810
    2788           0      -182.950150   2091.124023  -21343.90234     54.080643
    2789           0      -182.950150   2091.124023  -21700.00000     51.280041
    2790           0      -182.950150   2091.124023  -22056.09765     48.561840
    2791           0      -182.950165   2091.124023  -22412.19726     45.926723
    2792           0      -182.950165   2091.124023  -22768.29492     43.376106
    2793           0      -182.950165   2091.124023  -23124.39062     40.911976
    2794           0      -182.950180   2091.124023  -23480.48828     38.536259
    2795           0      -182.950180   2091.124023  -23836.58789     36.250862
    2796           0      -182.950180   2091.124023  -24192.68554     34.056717
    2797           0      -182.950180   2091.124023  -24548.78125     31.954838
    2798           0      -182.950180   2091.124023  -24904.87890     29.944319
    2799           0      -182.950180   2091.124023  -25260.97460     28.025896
    2800           0      -182.950180   2091.124023  -25617.07226     26.196436
    2801           0      -182.950195   2091.124023  -25973.17187     24.457907
    2802           0      -182.950195   2091.124023  -26329.26953     22.804712
    2803           0      -182.950195   2091.124023  -26685.36914     21.238832
    2804           0      -182.950211   2091.124023  -27041.46484     19.762177
    2805           0      -182.950211   2091.124023  -27397.56250     18.343357
    2806           0      -182.950211   2091.124023  -27753.66015     17.093090
    2807           0      -182.950211   2091.124023  -28109.75781     15.663620
    2808           0      -182.950211   2091.124023  -28465.85351     15.038093
    2809           0      -182.950165   2091.124023  -28821.94921     12.683619
    2810           0      -304.228607   2076.948730  -14578.05078    113.392784
    2811           0      -304.228607   2076.948730  -14934.14843    120.633896
    2812           0      -304.228607   2076.948730  -15290.24609    111.767647
    2813           0      -304.228607   2076.948730  -15646.34277    109.173004
    2814           0      -304.228607   2076.948730  -16002.44140    104.558067
    2815           0      -304.228607   2076.948730  -16358.53808    100.681953
    2816           0      -304.228607   2076.948730  -16714.63671     96.676132
    2817           0      -304.228607   2076.948730  -17070.73437     92.801025
    2818           0      -304.228638   2076.948730  -17426.83203     88.990311
    2819           0      -304.228638   2076.948730  -17782.92968     85.260857
    2820           0      -304.228638   2076.948730  -18139.02539     81.615105
    2821           0      -304.228638   2076.948730  -18495.12304     78.053192
    2822           0      -304.228638   2076.948730  -18851.22070     74.579285
    2823           0      -304.228638   2076.948730  -19207.31835     71.193726
    2824           0      -304.228638   2076.948730  -19563.41796     67.898293
    2825           0      -304.228638   2076.948730  -19919.51562     64.692863
    2826           0      -304.228668   2076.948730  -20275.61132     61.577328
    2827           0      -304.228668   2076.948730  -20631.70898     58.550762
    2828           0      -304.228668   2076.948730  -20987.80664     55.612228
    2829           0      -304.228668   2076.948730  -21343.90234     52.760799
    2830           0      -304.228668   2076.948730  -21700.00000     49.995983
    2831           0      -304.228668   2076.948730  -22056.09765     47.317802
    2832           0      -304.228668   2076.948730  -22412.19726     44.727024
    2833           0      -304.228668   2076.948730  -22768.29296     42.225063
    2834           0      -304.228668   2076.948730  -23124.39062     39.814030
    2835           0      -304.228699   2076.948730  -23480.48828     37.496162
    2836           0      -304.228699   2076.948730  -23836.58789     35.273869
    2837           0      -304.228699   2076.948730  -24192.68359     33.148705
    2838           0      -304.228699   2076.948730  -24548.78125     31.121849
    2839           0      -304.228699   2076.948730  -24904.87890     29.192627
    2840           0      -304.228699   2076.948730  -25260.97656     27.360649
    2841           0      -304.228699   2076.948730  -25617.07421     25.622780
    2842           0      -304.228699   2076.948730  -25973.17187     23.977680
    2843           0      -304.228699   2076.948730  -26329.26953     22.421215
    2844           0      -304.228699   2076.948730  -26685.36914     20.947527
    2845           0      -304.228729   2076.948730  -27041.46484     19.565432
    2846           0      -304.228729   2076.948730  -27397.56250     18.226776
    2847           0      -304.228729   2076.948730  -27753.66015     17.058928
    2848           0      -304.228729   2076.948730  -28109.75781     15.694399
    2849           0      -304.228729   2076.948730  -28465.85351     15.110542
    2850           0      -304.228668   2076.948730  -28821.95312     12.850142
    2851           0      -424.477692   2055.745361  -14578.05078    111.213898
    2852           0      -424.477692   2055.745361  -14934.14843    118.287384
    2853           0      -424.477692   2055.745361  -15290.24609    109.608261
    2854           0      -424.477692   2055.745361  -15646.34277    107.078552
    2855           0      -424.477692   2055.745361  -16002.44140    102.542076
    2856           0      -424.477692   2055.745361  -16358.53808     98.742607
    2857           0      -424.477692   2055.745361  -16714.63671     94.797127
    2858           0      -424.477692   2055.745361  -17070.73437     90.982437
    2859           0      -424.477692   2055.745361  -17426.83203     87.220718
    2860           0      -424.477692   2055.745361  -17782.92968     83.536545
    2861           0      -424.477692   2055.745361  -18139.02539     79.928764
    2862           0      -424.477692   2055.745361  -18495.12304     76.400726
    2863           0      -424.477692   2055.745361  -18851.22070     72.956284
    2864           0      -424.477692   2055.745361  -19207.31835     69.597572
    2865           0      -424.477692   2055.745361  -19563.41796     66.327103
    2866           0      -424.477692   2055.745361  -19919.51562     63.146278
    2867           0      -424.477692   2055.745361  -20275.61132     60.056244
    2868           0      -424.477692   2055.745361  -20631.70898     57.057762
    2869           0      -424.477692   2055.745361  -20987.80664     54.151493
    2870           0      -424.477692   2055.745361  -21343.90429     51.337944
    2871           0      -424.477692   2055.745361  -21700.00195     48.617531
    2872           0      -424.477692   2055.745361  -22056.09765     45.990662
    2873           0      -424.477692   2055.745361  -22412.19726     43.457714
    2874           0      -424.477692   2055.745361  -22768.29296     41.019207
    2875           0      -424.477692   2055.745361  -23124.39062     38.675934
    2876           0      -424.477692   2055.745361  -23480.48828     36.428982
    2877           0      -424.477692   2055.745361  -23836.58789     34.279766
    2878           0      -424.477692   2055.745361  -24192.68554     32.229439
    2879           0      -424.477692   2055.745361  -24548.78125     30.278708
    2880           0      -424.477692   2055.745361  -24904.87890     28.427250
    2881           0      -424.477692   2055.745361  -25260.97656     26.673664
    2882           0      -424.477692   2055.745361  -25617.07226     25.015911
    2883           0      -424.477692   2055.745361  -25973.17187     23.449614
    2884           0      -424.477692   2055.745361  -26329.26953     21.974300
    2885           0      -424.477692   2055.745361  -26685.36914     20.575924
    2886           0      -424.477692   2055.745361  -27041.46484     19.273685
    2887           0      -424.477692   2055.745361  -27397.56250     18.000883
    2888           0      -424.477692   2055.745361  -27753.66015     16.904055
    2889           0      -424.477692   2055.745361  -28109.75781     15.598334
    2890           0      -424.477692   2055.745361  -28465.85351     15.039433
    2891           0      -424.477692   2055.745361  -28821.95117     12.889796
    2892           0      -543.290527   2027.586182  -14578.05078    108.591957
    2893           0      -543.290527   2027.586182  -14934.14843    115.478325
    2894           0      -543.290527   2027.586182  -15290.24609    107.054375
    2895           0      -543.290527   2027.586182  -15646.34277    104.622467
    2896           0      -543.290527   2027.586182  -16002.44140    100.206551
    2897           0      -543.290527   2027.586182  -16358.53808     96.522064
    2898           0      -543.290527   2027.586182  -16714.63671     92.674080
    2899           0      -543.290527   2027.586182  -17070.73437     88.956276
    2900           0      -543.290527   2027.586182  -17426.83007     85.278442
    2901           0      -543.290527   2027.586182  -17782.92773     81.673363
    2902           0      -543.290527   2027.586182  -18139.02539     78.135811
    2903           0      -543.290527   2027.586182  -18495.12304     74.672150
    2904           0      -543.290527   2027.586182  -18851.22070     71.285538
    2905           0      -543.290527   2027.586182  -19207.31835     67.979530
    2906           0      -543.290527   2027.586182  -19563.41796     64.757454
    2907           0      -543.290527   2027.586182  -19919.51367     61.622364
    2908           0      -543.290527   2027.586182  -20275.61132     58.577557
    2909           0      -543.290527   2027.586182  -20631.70898     55.626228
    2910           0      -543.290527   2027.586182  -20987.80664     52.771694
    2911           0      -543.290527   2027.586182  -21343.90234     50.016533
    2912           0      -543.290588   2027.586182  -21700.00000     47.362518
    2913           0      -543.290588   2027.586182  -22056.09765     44.810181
    2914           0      -543.290588   2027.586182  -22412.19726     42.358784
    2915           0      -543.290588   2027.586182  -22768.29492     40.006599
    2916           0      -543.290588   2027.586182  -23124.39062     37.751099
    2917           0      -543.290588   2027.586182  -23480.48828     35.590004
    2918           0      -543.290588   2027.586182  -23836.58789     33.521301
    2919           0      -543.290588   2027.586182  -24192.68554     31.543913
    2920           0      -543.290588   2027.586182  -24548.78125     29.656893
    2921           0      -543.290588   2027.586182  -24904.87890     27.860273
    2922           0      -543.290588   2027.586182  -25260.97460     26.152407
    2923           0      -543.290588   2027.586182  -25617.07226     24.534163
    2924           0      -543.290588   2027.586182  -25973.17187     23.000069
    2925           0      -543.290588   2027.586182  -26329.26953     21.556248
    2926           0      -543.290588   2027.586182  -26685.36914     20.183147
    2927           0      -543.290588   2027.586182  -27041.46484     18.913023
    2928           0      -543.290588   2027.586182  -27397.56250     17.664951
    2929           0      -543.290588   2027.586182  -27753.66015     16.600792
    2930           0      -543.290588   2027.586182  -28109.75781     15.334443
    2931           0      -543.290588   2027.586182  -28465.85351     14.762925
    2932           0      -543.290527   2027.586182  -28821.94921     12.746987
    2933           0      -660.265015   1992.566284  -14578.05078    105.401939
    2934           0      -660.265015   1992.566284  -14934.14843    112.078987
    2935           0      -660.265015   1992.566284  -15290.24609    104.002205
    2936           0      -660.265015   1992.566284  -15646.34277    101.711853
    2937           0      -660.265015   1992.566284  -16002.44140     97.477730
    2938           0      -660.265015   1992.566284  -16358.53808     93.962349
    2939           0      -660.265015   1992.566284  -16714.63671     90.267723
    2940           0      -660.265015   1992.566284  -17070.73437     86.701584
    2941           0      -660.265015   1992.566284  -17426.83203     83.162010
    2942           0      -660.265015   1992.566284  -17782.92968     79.689728
    2943           0      -660.265015   1992.566284  -18139.02539     76.275063
    2944           0      -660.265015   1992.566284  -18495.12304     72.926834
    2945           0      -660.265015   1992.566284  -18851.22070     69.647041
    2946           0      -660.265015   1992.566284  -19207.31835     66.440254
    2947           0      -660.265015   1992.566284  -19563.41796     63.310562
    2948           0      -660.265015   1992.566284  -19919.51562     60.263008
    2949           0      -660.265015   1992.566284  -20275.61132     57.303410
    2950           0      -660.265015   1992.566284  -20631.70898     54.437820
    2951           0      -660.265015   1992.566284  -20987.80664     51.672005
    2952           0      -660.265015   1992.566284  -21343.90234     49.010468
    2953           0      -660.265015   1992.566284  -21700.00000     46.455799
    2954           0      -660.265015   1992.566284  -22056.09765     44.007553
    2955           0      -660.265015   1992.566284  -22412.19726     41.663349
    2956           0      -660.265015   1992.566284  -22768.29296     39.417866
    2957           0      -660.265015   1992.566284  -23124.39062     37.264172
    2958           0      -660.265015   1992.566284  -23480.48828     35.195129
    2959           0      -660.265015   1992.566284  -23836.58789     33.203533
    2960           0      -660.265015   1992.566284  -24192.68359     31.284531
    2961           0      -660.265015   1992.566284  -24548.78125     29.434357
    2962           0      -660.265015   1992.566284  -24904.87890     27.653267
    2963           0      -660.265015   1992.566284  -25260.97656     25.940229
    2964           0      -660.265015   1992.566284  -25617.07421     24.300802
    2965           0      -660.265015   1992.566284  -25973.17187     22.731148
    2966           0      -660.265015   1992.566284  -26329.26953     21.246380
    2967           0      -660.265015   1992.566284  -26685.36914     19.826185
    2968           0      -660.265015   1992.566284  -27041.46484     18.516525
    2969           0      -660.265015   1992.566284  -27397.56250     17.232521
    2970           0      -660.265015   1992.566284  -27753.66015     16.140985
    2971           0      -660.265015   1992.566284  -28109.75781     14.885101
    2972           0      -660.265015   1992.566284  -28465.85351     14.246859
    2973           0      -660.265015   1992.566284  -28821.95312     12.398707
    2974           0      -775.005371   1950.804199  -14578.05078    101.535210
    2975           0      -775.005371   1950.804199  -14934.14843    107.975822
    2976           0      -775.005371   1950.804199  -15290.24609    100.359238
    2977           0      -775.005371   1950.804199  -15646.34277     98.261520
    2978           0      -775.005371   1950.804199  -16002.44140     94.286736
    2979           0      -775.005371   1950.804199  -16358.53808     91.006851
    2980           0      -775.005371   1950.804199  -16714.63671     87.536644
    2981           0      -775.005371   1950.804199  -17070.73437     84.191475
    2982           0      -775.005371   1950.804199  -17426.83203     80.859978
    2983           0      -775.005371   1950.804199  -17782.92968     77.589828
    2984           0      -775.005371   1950.804199  -18139.02539     74.366402
    2985           0      -775.005371   1950.804199  -18495.12304     71.200768
    2986           0      -775.005371   1950.804199  -18851.22070     68.093063
    2987           0      -775.005371   1950.804199  -19207.31835     65.049156
    2988           0      -775.005371   1950.804199  -19563.41796     62.073803
    2989           0      -775.005371   1950.804199  -19919.51562     59.174400
    2990           0      -775.005371   1950.804199  -20275.61132     56.358509
    2991           0      -775.005371   1950.804199  -20631.70898     53.634193
    2992           0      -775.005371   1950.804199  -20987.80664     51.007660
    2993           0      -775.005371   1950.804199  -21343.90429     48.483379
    2994           0      -775.005371   1950.804199  -21700.00195     46.062664
    2995           0      -775.005371   1950.804199  -22056.09765     43.742970
    2996           0      -775.005371   1950.804199  -22412.19726     41.519405
    2997           0      -775.005371   1950.804199  -22768.29296     39.383430
    2998           0      -775.005371   1950.804199  -23124.39062     37.324863
    2999           0      -775.005371   1950.804199  -23480.48828     35.332420
    3000           0      -775.005371   1950.804199  -23836.58789     33.394955
    3001           0      -775.005371   1950.804199  -24192.68554     31.503868
    3002           0      -775.005371   1950.804199  -24548.78125     29.652649
    3003           0      -775.005371   1950.804199  -24904.87890     27.841192
    3004           0      -775.005371   1950.804199  -25260.97656     26.069521
    3005           0      -775.005371   1950.804199  -25617.07226     24.348040
    3006           0      -775.005371   1950.804199  -25973.17187     22.676834
    3007           0      -775.005371   1950.804199  -26329.26953     21.079918
    3008           0      -775.005371   1950.804199  -26685.36914     19.541693
    3009           0      -775.005371   1950.804199  -27041.46484     18.118578
    3010           0      -775.005371   1950.804199  -27397.56250     16.736914
    3011           0      -775.005371   1950.804199  -27753.66015     15.551986
    3012           0      -775.005371   1950.804199  -28109.75781     14.279576
    3013           0      -775.005371   1950.804199  -28465.85351     13.519727
    3014           0      -775.005371   1950.804199  -28821.95117     11.891021
    3015           0      -887.123413   1902.441162  -14578.05078     96.924294
    3016           0      -887.123413   1902.441162  -14934.14843    103.095360
    3017           0      -887.123413   1902.441162  -15290.24609     96.064468
    3018           0      -887.123413   1902.441162  -15646.34277     94.212326
    3019           0      -887.123413   1902.441162  -16002.44140     90.584091
    3020           0      -887.123413   1902.441162  -16358.53808     87.611404
    3021           0      -887.123413   1902.441162  -16714.63671     84.445419
    3022           0      -887.123413   1902.441162  -17070.73437     81.397270
    3023           0      -887.123413   1902.441162  -17426.83007     78.351715
    3024           0      -887.123413   1902.441162  -17782.92773     75.359833
    3025           0      -887.123413   1902.441162  -18139.02539     72.403366
    3026           0      -887.123413   1902.441162  -18495.12304     69.494362
    3027           0      -887.123413   1902.441162  -18851.22070     66.631973
    3028           0      -887.123413   1902.441162  -19207.31835     63.823387
    3029           0      -887.123413   1902.441162  -19563.41796     61.074528
    3030           0      -887.123413   1902.441162  -19919.51367     58.394066
    3031           0      -887.123413   1902.441162  -20275.61132     55.789669
    3032           0      -887.123413   1902.441162  -20631.70898     53.268044
    3033           0      -887.123413   1902.441162  -20987.80664     50.832710
    3034           0      -887.123413   1902.441162  -21343.90234     48.484592
    3035           0      -887.123352   1902.441162  -21700.00000     46.220619
    3036           0      -887.123352   1902.441162  -22056.09765     44.036160
    3037           0      -887.123352   1902.441162  -22412.19726     41.923176
    3038           0      -887.123352   1902.441162  -22768.29492     39.872711
    3039           0      -887.123352   1902.441162  -23124.39062     37.874474
    3040           0      -887.123352   1902.441162  -23480.48828     35.917412
    3041           0      -887.123352   1902.441162  -23836.58789     33.990364
    3042           0      -887.123352   1902.441162  -24192.68554     32.083981
    3043           0      -887.123352   1902.441162  -24548.78125     30.190510
    3044           0      -887.123352   1902.441162  -24904.87890     28.309031
    3045           0      -887.123352   1902.441162  -25260.97460     26.440067
    3046           0      -887.123352   1902.441162  -25617.07226     24.596766
    3047           0      -887.123352   1902.441162  -25973.17187     22.783974
    3048           0      -887.123352   1902.441162  -26329.26953     21.031420
    3049           0      -887.123352   1902.441162  -26685.36914     19.333267
    3050           0      -887.123413   1902.441162  -27041.46484     17.748808
    3051           0      -887.123413   1902.441162  -27397.56250     16.233095
    3052           0      -887.123413   1902.441162  -27753.66015     14.909793
    3053           0      -887.123413   1902.441162  -28109.75781     13.615881
    3054           0      -887.123413   1902.441162  -28465.85351     12.712182
    3055           0      -887.123413   1902.441162  -28821.94921     11.378743
    3056           0      -996.239624   1847.640869  -14578.05078     91.565521
    3057           0      -996.239624   1847.640869  -14934.14843     97.427856
    3058           0      -996.239624   1847.640869  -15290.24609     91.107307
    3059           0      -996.239624   1847.640869  -15646.34277     89.549034
    3060           0      -996.239624   1847.640869  -16002.44140     86.353584
    3061           0      -996.239624   1847.640869  -16358.53808     83.757095
    3062           0      -996.239624   1847.640869  -16714.63671     80.973480
    3063           0      -996.239624   1847.640869  -17070.73437     78.295937
    3064           0      -996.239624   1847.640869  -17426.83203     75.611465
    3065           0      -996.239624   1847.640869  -17782.92968     72.970581
    3066           0      -996.239624   1847.640869  -18139.02539     70.352997
    3067           0      -996.239624   1847.640869  -18495.12304     67.771141
    3068           0      -996.239624   1847.640869  -18851.22070     65.224617
    3069           0      -996.239624   1847.640869  -19207.31835     62.721825
    3070           0      -996.239624   1847.640869  -19563.41796     60.269550
    3071           0      -996.239624   1847.640869  -19919.51562     57.875111
    3072           0      -996.239624   1847.640869  -20275.61132     55.543232
    3073           0      -996.239624   1847.640869  -20631.70898     53.274853
    3074           0      -996.239624   1847.640869  -20987.80664     51.067459
    3075           0      -996.239624   1847.640869  -21343.90234     48.915020
    3076           0      -996.239624   1847.640869  -21700.00000     46.809750
    3077           0      -996.239624   1847.640869  -22056.09765     44.743828
    3078           0      -996.239624   1847.640869  -22412.19726     42.708981
    3079           0      -996.239624   1847.640869  -22768.29296     40.698795
    3080           0      -996.239624   1847.640869  -23124.39062     38.707462
    3081           0      -996.239624   1847.640869  -23480.48828     36.729786
    3082           0      -996.239624   1847.640869  -23836.58789     34.760029
    3083           0      -996.239624   1847.640869  -24192.68359     32.792843
    3084           0      -996.239624   1847.640869  -24548.78125     30.822336
    3085           0      -996.239624   1847.640869  -24904.87890     28.847033
    3086           0      -996.239624   1847.640869  -25260.97656     26.867054
    3087           0      -996.239624   1847.640869  -25617.07421     24.894650
    3088           0      -996.239624   1847.640869  -25973.17187     22.938871
    3089           0      -996.239624   1847.640869  -26329.26953     21.030361
    3090           0      -996.239685   1847.640869  -26685.36914     19.177185
    3091           0      -996.239685   1847.640869  -27041.46484     17.432741
    3092           0      -996.239685   1847.640869  -27397.56250     15.796304
    3093           0      -996.239685   1847.640869  -27753.66015     14.343591
    3094           0      -996.239685   1847.640869  -28109.75781     13.069469
    3095           0      -996.239685   1847.640869  -28465.85351     12.081567
    3096           0      -996.239685   1847.640869  -28821.95312     11.138130
    3097           0     -1101.984863   1786.588867  -14578.05078     85.536339
    3098           0     -1101.984863   1786.588867  -14934.14843     91.047279
    3099           0     -1101.984863   1786.588867  -15290.24609     85.542542
    3100           0     -1101.984863   1786.588867  -15646.34277     84.315269
    3101           0     -1101.984863   1786.588867  -16002.44140     81.625069
    3102           0     -1101.984863   1786.588867  -16358.53808     79.461571
    3103           0     -1101.984863   1786.588867  -16714.63671     77.125290
    3104           0     -1101.984863   1786.588867  -17070.73437     74.879379
    3105           0     -1101.984863   1786.588867  -17426.83203     72.617172
    3106           0     -1101.984863   1786.588867  -17782.92968     70.386658
    3107           0     -1101.984863   1786.588867  -18139.02539     68.166100
    3108           0     -1101.984863   1786.588867  -18495.12304     65.969604
    3109           0     -1101.984863   1786.588867  -18851.22070     63.797112
    3110           0     -1101.984863   1786.588867  -19207.31835     61.658199
    3111           0     -1101.984863   1786.588867  -19563.41796     59.557388
    3112           0     -1101.984863   1786.588867  -19919.51562     57.497795
    3113           0     -1101.984863   1786.588867  -20275.61132     55.476669
    3114           0     -1101.984863   1786.588867  -20631.70898     53.486809
    3115           0     -1101.984863   1786.588867  -20987.80664     51.517296
    3116           0     -1101.984863   1786.588867  -21343.90429     49.555618
    3117           0     -1101.984863   1786.588867  -21700.00195     47.590080
    3118           0     -1101.984863   1786.588867  -22056.09765     45.611458
    3119           0     -1101.984863   1786.588867  -22412.19726     43.614239
    3120           0     -1101.984863   1786.588867  -22768.29296     41.597294
    3121           0     -1101.984863   1786.588867  -23124.39062     39.562691
    3122           0     -1101.984863   1786.588867  -23480.48828     37.515034
    3123           0     -1101.984863   1786.588867  -23836.58789     35.458580
    3124           0     -1101.984863   1786.588867  -24192.68554     33.396515
    3125           0     -1101.984863   1786.588867  -24548.78125     31.328917
    3126           0     -1101.984863   1786.588867  -24904.87890     29.255402
    3127           0     -1101.984863   1786.588867  -25260.97656     27.175760
    3128           0     -1101.984863   1786.588867  -25617.07226     25.098019
    3129           0     -1101.984863   1786.588867  -25973.17187     23.034000
    3130           0     -1101.984863   1786.588867  -26329.26953     21.011089
    3131           0     -1101.984863   1786.588867  -26685.36914     19.054611
    3132           0     -1101.984863   1786.588867  -27041.46484     17.206915
    3133           0     -1101.984863   1786.588867  -27397.56250     15.521745
    3134           0     -1101.984863   1786.588867  -27753.66015     14.023067
    3135           0     -1101.984863   1786.588867  -28109.75781     12.867103
    3136           0     -1101.984863   1786.588867  -28465.85351     11.965063
    3137           0     -1101.984863   1786.588867  -28821.95117     11.479611
    3138           0     -1204.001465   1719.491333  -14578.05078     79.006912
    3139           0     -1204.001465   1719.491333  -14934.14843     84.121315
    3140           0     -1204.001465   1719.491333  -15290.24609     79.505341
    3141           0     -1204.001465   1719.491333  -15646.34277     78.623894
    3142           0     -1204.001465   1719.491333  -16002.44140     76.487656
    3143           0     -1204.001465   1719.491333  -16358.53808     74.789604
    3144           0     -1204.001465   1719.491333  -16714.63671     72.943291
    3145           0     -1204.001465   1719.491333  -17070.73437     71.166092
    3146           0     -1204.001465   1719.491333  -17426.83007     69.365448
    3147           0     -1204.001465   1719.491333  -17782.92773     67.582695
    3148           0     -1204.001465   1719.491333  -18139.02539     65.798035
    3149           0     -1204.001465   1719.491333  -18495.12304     64.026367
    3150           0     -1204.001465   1719.491333  -18851.22070     62.267864
    3151           0     -1204.001465   1719.491333  -19207.31835     60.530048
    3152           0     -1204.001465   1719.491333  -19563.41796     58.811741
    3153           0     -1204.001465   1719.491333  -19919.51367     57.108021
    3154           0     -1204.001465   1719.491333  -20275.61132     55.406693
    3155           0     -1204.001465   1719.491333  -20631.70898     53.692169
    3156           0     -1204.001465   1719.491333  -20987.80664     51.946747
    3157           0     -1204.001465   1719.491333  -21343.90234     50.154289
    3158           0     -1204.001465   1719.491333  -21700.00000     48.301964
    3159           0     -1204.001465   1719.491333  -22056.09765     46.382366
    3160           0     -1204.001465   1719.491333  -22412.19726     44.394333
    3161           0     -1204.001465   1719.491333  -22768.29492     42.343143
    3162           0     -1204.001465   1719.491333  -23124.39062     40.239658
    3163           0     -1204.001465   1719.491333  -23480.48828     38.098774
    3164           0     -1204.001465   1719.491333  -23836.58789     35.936810
    3165           0     -1204.001465   1719.491333  -24192.68554     33.768036
    3166           0     -1204.001465   1719.491333  -24548.78125     31.602680
    3167           0     -1204.001465   1719.491333  -24904.87890     29.444645
    3168           0     -1204.001465   1719.491333  -25260.97460     27.295610
    3169           0     -1204.001465   1719.491333  -25617.07226     25.157803
    3170           0     -1204.001465   1719.491333  -25973.17187     23.044540
    3171           0     -1204.001465   1719.491333  -26329.26953     20.977051
    3172           0     -1204.001465   1719.491333  -26685.36914     19.000214
    3173           0     -1204.001465   1719.491333  -27041.46484     17.146055
    3174           0     -1204.001465   1719.491333  -27397.56250     15.524558
    3175           0     -1204.001465   1719.491333  -27753.66015     14.120024
    3176           0     -1204.001465   1719.491333  -28109.75781     13.203496
    3177           0     -1204.001465   1719.491333  -28465.85351     12.604174
    3178           0     -1204.001465   1719.491333  -28821.94921     12.547644
    3179           0     -1301.944092   1646.575928  -14578.05078     72.244835
    3180           0     -1301.944092   1646.575928  -14934.14843     76.909698
    3181           0     -1301.944092   1646.575928  -15290.24609     73.210129
    3182           0     -1301.944092   1646.575928  -15646.34277     72.658775
    3183           0     -1301.944092   1646.575928  -16002.44140     71.090332
    3184           0     -1301.944092   1646.575928  -16358.53808     69.857567
    3185           0     -1301.944092   1646.575928  -16714.63671     68.512138
    3186           0     -1301.944092   1646.575928  -17070.73437     67.210258
    3187           0     -1301.944092   1646.575928  -17426.83203     65.882996
    3188           0     -1301.944092   1646.575928  -17782.92968     64.560684
    3189           0     -1301.944092   1646.575928  -18139.02539     63.229473
    3190           0     -1301.944092   1646.575928  -18495.12304     61.901859
    3191           0     -1301.944092   1646.575928  -18851.22070     60.576759
    3192           0     -1301.944092   1646.575928  -19207.31835     59.254662
    3193           0     -1301.944092   1646.575928  -19563.41796     57.926056
    3194           0     -1301.944092   1646.575928  -19919.51562     56.575909
    3195           0     -1301.944092   1646.575928  -20275.61132     55.184040
    3196           0     -1301.944092   1646.575928  -20631.70898     53.728668
    3197           0     -1301.944092   1646.575928  -20987.80664     52.189449
    3198           0     -1301.944092   1646.575928  -21343.90234     50.549774
    3199           0     -1301.944092   1646.575928  -21700.00000     48.798782
    3200           0     -1301.944092   1646.575928  -22056.09765     46.932285
    3201           0     -1301.944092   1646.575928  -22412.19726     44.953720
    3202           0     -1301.944092   1646.575928  -22768.29296     42.873749
    3203           0     -1301.944092   1646.575928  -23124.39062     40.710369
    3204           0     -1301.944092   1646.575928  -23480.48828     38.486881
    3205           0     -1301.944092   1646.575928  -23836.58789     36.230705
    3206           0     -1301.944092   1646.575928  -24192.68359     33.967915
    3207           0     -1301.944092   1646.575928  -24548.78125     31.721926
    3208           0     -1301.944092   1646.575928  -24904.87890     29.505512
    3209           0     -1301.944092   1646.575928  -25260.97656     27.326466
    3210           0     -1301.944092   1646.575928  -25617.07421     25.183088
    3211           0     -1301.944092   1646.575928  -25973.17187     23.088192
    3212           0     -1301.944092   1646.575928  -26329.26953     21.055819
    3213           0     -1301.944092   1646.575928  -26685.36914     19.146904
    3214           0     -1301.944092   1646.575928  -27041.46484     17.389990
    3215           0     -1301.944092   1646.575928  -27397.56250     15.936467
    3216           0     -1301.944092   1646.575928  -27753.66015     14.755124
    3217           0     -1301.944092   1646.575928  -28109.75781     14.141973
    3218           0     -1301.944092   1646.575928  -28465.85351     13.960159
    3219           0     -1301.944092   1646.575928  -28821.95312     14.206249
    3220           0     -1395.481201   1568.088745  -14578.05078     65.586411
    3221           0     -1395.481201   1568.088745  -14934.14843     69.762054
    3222           0     -1395.481201   1568.088745  -15290.24609     66.935349
    3223           0     -1395.481201   1568.088745  -15646.34277     66.670670
    3224           0     -1395.481201   1568.088745  -16002.44140     65.636024
    3225           0     -1395.481201   1568.088745  -16358.53808     64.833115
    3226           0     -1395.481201   1568.088745  -16714.63671     63.960312
    3227           0     -1395.481201   1568.088745  -17070.73437     63.108677
    3228           0     -1395.481201   1568.088745  -17426.83203     62.236977
    3229           0     -1395.481201   1568.088745  -17782.92968     61.364799
    3230           0     -1395.481201   1568.088745  -18139.02539     60.483345
    3231           0     -1395.481201   1568.088745  -18495.12304     59.600609
    3232           0     -1395.481201   1568.088745  -18851.22070     58.710056
    3233           0     -1395.481201   1568.088745  -19207.31835     57.803001
    3234           0     -1395.481201   1568.088745  -19563.41796     56.860352
    3235           0     -1395.481201   1568.088745  -19919.51562     55.859055
    3236           0     -1395.481201   1568.088745  -20275.61132     54.773338
    3237           0     -1395.481201   1568.088745  -20631.70898     53.578766
    3238           0     -1395.481201   1568.088745  -20987.80664     52.254375
    3239           0     -1395.481201   1568.088745  -21343.90429     50.784485
    3240           0     -1395.481201   1568.088745  -21700.00195     49.159874
    3241           0     -1395.481201   1568.088745  -22056.09765     47.378517
    3242           0     -1395.481201   1568.088745  -22412.19726     45.446259
    3243           0     -1395.481201   1568.088745  -22768.29296     43.376820
    3244           0     -1395.481201   1568.088745  -23124.39062     41.192448
    3245           0     -1395.481201   1568.088745  -23480.48828     38.922352
    3246           0     -1395.481201   1568.088745  -23836.58789     36.602882
    3247           0     -1395.481201   1568.088745  -24192.68554     34.271896
    3248           0     -1395.481201   1568.088745  -24548.78125     31.967733
    3249           0     -1395.481201   1568.088745  -24904.87890     29.717865
    3250           0     -1395.481201   1568.088745  -25260.97656     27.541765
    3251           0     -1395.481201   1568.088745  -25617.07226     25.440092
    3252           0     -1395.481201   1568.088745  -25973.17187     23.422054
    3253           0     -1395.481201   1568.088745  -26329.26953     21.493488
    3254           0     -1395.481201   1568.088745  -26685.36914     19.717670
    3255           0     -1395.481201   1568.088745  -27041.46484     18.126284
    3256           0     -1395.481201   1568.088745  -27397.56250     16.880640
    3257           0     -1395.481201   1568.088745  -27753.66015     15.959067
    3258           0     -1395.481201   1568.088745  -28109.75781     15.597351
    3259           0     -1395.481201   1568.088745  -28465.85351     15.763526
    3260           0     -1395.481201   1568.088745  -28821.95117     16.145214
    3261           0     -1484.296631   1484.295654  -14578.05078     59.423691
    3262           0     -1484.296631   1484.295654  -14934.14843     63.079838
    3263           0     -1484.296631   1484.295654  -15290.24609     61.014355
    3264           0     -1484.296631   1484.295654  -15646.34277     60.957413
    3265           0     -1484.296631   1484.295654  -16002.44140     60.375462
    3266           0     -1484.296631   1484.295654  -16358.53808     59.927311
    3267           0     -1484.296631   1484.295654  -16714.63671     59.461239
    3268           0     -1484.296631   1484.295654  -17070.73437     59.002895
    3269           0     -1484.296631   1484.295654  -17426.83007     58.542667
    3270           0     -1484.296631   1484.295654  -17782.92773     58.087845
    3271           0     -1484.296631   1484.295654  -18139.02539     57.633797
    3272           0     -1484.296631   1484.295654  -18495.12304     57.181583
    3273           0     -1484.296631   1484.295654  -18851.22070     56.718315
    3274           0     -1484.296631   1484.295654  -19207.31835     56.226803
    3275           0     -1484.296631   1484.295654  -19563.41796     55.680580
    3276           0     -1484.296631   1484.295654  -19919.51367     55.050987
    3277           0     -1484.296631   1484.295654  -20275.61132     54.308201
    3278           0     -1484.296631   1484.295654  -20631.70898     53.424820
    3279           0     -1484.296631   1484.295654  -20987.80664     52.377171
    3280           0     -1484.296631   1484.295654  -21343.90234     51.147076
    3281           0     -1484.296631   1484.295654  -21700.00000     49.722824
    3282           0     -1484.296631   1484.295654  -22056.09765     48.100296
    3283           0     -1484.296631   1484.295654  -22412.19726     46.283943
    3284           0     -1484.296631   1484.295654  -22768.29492     44.287300
    3285           0     -1484.296631   1484.295654  -23124.39062     42.134281
    3286           0     -1484.296631   1484.295654  -23480.48828     39.858162
    3287           0     -1484.296631   1484.295654  -23836.58789     37.502926
    3288           0     -1484.296631   1484.295654  -24192.68554     35.118431
    3289           0     -1484.296631   1484.295654  -24548.78125     32.759720
    3290           0     -1484.296631   1484.295776  -24904.87890     30.474836
    3291           0     -1484.296631   1484.295776  -25260.97460     28.302404
    3292           0     -1484.296631   1484.295776  -25617.07226     26.255796
    3293           0     -1484.296631   1484.295776  -25973.17187     24.339928
    3294           0     -1484.296631   1484.295776  -26329.26953     22.548847
    3295           0     -1484.296631   1484.295776  -26685.36914     20.925646
    3296           0     -1484.296631   1484.295776  -27041.46484     19.502094
    3297           0     -1484.296631   1484.295776  -27397.56250     18.415562
    3298           0     -1484.296631   1484.295776  -27753.66015     17.671787
    3299           0     -1484.296631   1484.295776  -28109.75781     17.409819
    3300           0     -1484.296631   1484.295776  -28465.85351     17.712475
    3301           0     -1484.296631   1484.295654  -28821.94921     18.065704
    3302           0     -1568.089478   1395.480347  -14578.05078     54.156956
    3303           0     -1568.089478   1395.480347  -14934.14843     57.279503
    3304           0     -1568.089478   1395.480347  -15290.24609     55.796143
    3305           0     -1568.089478   1395.480347  -15646.34277     55.837036
    3306           0     -1568.089478   1395.480347  -16002.44140     55.581635
    3307           0     -1568.089478   1395.480347  -16358.53808     55.377720
    3308           0     -1568.089478   1395.480347  -16714.63671     55.219204
    3309           0     -1568.089478   1395.480347  -17070.73437     55.069527
    3310           0     -1568.089478   1395.480347  -17426.83203     54.952526
    3311           0     -1568.089478   1395.480347  -17782.92968     54.861198
    3312           0     -1568.089478   1395.480347  -18139.02539     54.797310
    3313           0     -1568.089478   1395.480347  -18495.12304     54.755798
    3314           0     -1568.089478   1395.480347  -18851.22070     54.721069
    3315           0     -1568.089478   1395.480347  -19207.31835     54.669209
    3316           0     -1568.089478   1395.480347  -19563.41796     54.568218
    3317           0     -1568.089478   1395.480347  -19919.51562     54.382156
    3318           0     -1568.089478   1395.480347  -20275.61132     54.073727
    3319           0     -1568.089478   1395.480347  -20631.70898     53.606602
    3320           0     -1568.089478   1395.480347  -20987.80664     52.948109
    3321           0     -1568.089478   1395.480347  -21343.90234     52.070786
    3322           0     -1568.089478   1395.480347  -21700.00000     50.954700
    3323           0     -1568.089478   1395.480347  -22056.09765     49.588467
    3324           0     -1568.089478   1395.480347  -22412.19726     47.971321
    3325           0     -1568.089478   1395.480347  -22768.29296     46.113575
    3326           0     -1568.089478   1395.480347  -23124.39062     44.038723
    3327           0     -1568.089478   1395.480347  -23480.48828     41.782837
    3328           0     -1568.089478   1395.480347  -23836.58789     39.396496
    3329           0     -1568.089478   1395.480347  -24192.68359     36.941860
    3330           0     -1568.089478   1395.480347  -24548.78125     34.491783
    3331           0     -1568.089478   1395.480347  -24904.87890     32.119518
    3332           0     -1568.089478   1395.480347  -25260.97656     29.891035
    3333           0     -1568.089478   1395.480347  -25617.07421     27.846973
    3334           0     -1568.089478   1395.480347  -25973.17187     25.995699
    3335           0     -1568.089478   1395.480347  -26329.26953     24.319893
    3336           0     -1568.089478   1395.480347  -26685.36914     22.818907
    3337           0     -1568.089478   1395.480347  -27041.46484     21.508801
    3338           0     -1568.089478   1395.480347  -27397.56250     20.477766
    3339           0     -1568.089478   1395.480347  -27753.66015     19.764166
    3340           0     -1568.089478   1395.480347  -28109.75781     19.420212
    3341           0     -1568.089478   1395.480347  -28465.85351     19.602137
    3342           0     -1568.089478   1395.480347  -28821.95312     19.785772
    3343           0     -1646.576416   1301.943115  -14578.05078     50.141380
    3344           0     -1646.576416   1301.943115  -14934.14843     52.746696
    3345           0     -1646.576416   1301.943115  -15290.24609     51.606224
    3346           0     -1646.576416   1301.943115  -15646.34277     51.614681
    3347           0     -1646.576416   1301.943115  -16002.44140     51.522446
    3348           0     -1646.576416   1301.943115  -16358.53808     51.426785
    3349           0     -1646.576416   1301.943115  -16714.63671     51.448818
    3350           0     -1646.576416   1301.943115  -17070.73437     51.499538
    3351           0     -1646.576416   1301.943115  -17426.83203     51.632763
    3352           0     -1646.576416   1301.943115  -17782.92968     51.833981
    3353           0     -1646.576416   1301.943115  -18139.02539     52.116554
    3354           0     -1646.576416   1301.943115  -18495.12304     52.475502
    3355           0     -1646.576416   1301.943115  -18851.22070     52.893368
    3356           0     -1646.576416   1301.943115  -19207.31835     53.338013
    3357           0     -1646.576416   1301.943115  -19563.41796     53.765556
    3358           0     -1646.576416   1301.943115  -19919.51562     54.125046
    3359           0     -1646.576416   1301.943115  -20275.61132     54.362698
    3360           0     -1646.576416   1301.943115  -20631.70898     54.425877
    3361           0     -1646.576416   1301.943115  -20987.80664     54.266857
    3362           0     -1646.576416   1301.943115  -21343.90429     53.845108
    3363           0     -1646.576416   1301.943115  -21700.00195     53.129704
    3364           0     -1646.576416   1301.943115  -22056.09765     52.100502
    3365           0     -1646.576416   1301.943115  -22412.19726     50.749817
    3366           0     -1646.576416   1301.943115  -22768.29296     49.083275
    3367           0     -1646.576416   1301.943115  -23124.39062     47.121490
    3368           0     -1646.576416   1301.943115  -23480.48828     44.900990
    3369           0     -1646.576416   1301.943115  -23836.58789     42.475445
    3370           0     -1646.576416   1301.943115  -24192.68554     39.916252
    3371           0     -1646.576416   1301.943115  -24548.78125     37.311100
    3372           0     -1646.576416   1301.943115  -24904.87890     34.758873
    3373           0     -1646.576416   1301.943115  -25260.97656     32.357594
    3374           0     -1646.576416   1301.943115  -25617.07226     30.189085
    3375           0     -1646.576416   1301.943115  -25973.17187     28.287336
    3376           0     -1646.576416   1301.943115  -26329.26953     26.639416
    3377           0     -1646.576416   1301.943115  -26685.36914     25.195261
    3378           0     -1646.576416   1301.943115  -27041.46484     23.929470
    3379           0     -1646.576416   1301.943115  -27397.56250     22.863091
    3380           0     -1646.576416   1301.943115  -27753.66015     22.050854
    3381           0     -1646.576416   1301.943115  -28109.75781     21.489988
    3382           0     -1646.576416   1301.943115  -28465.85351     21.350136
    3383           0     -1646.576416   1301.943115  -28821.95117     21.260887
    3384           0     -1719.492065   1204.000610  -14578.05078     47.658607
    3385           0     -1719.492065   1204.000610  -14934.14843     49.796772
    3386           0     -1719.492065   1204.000610  -15290.24609     48.721634
    3387           0     -1719.492065   1204.000610  -15646.34277     48.555187
    3388           0     -1719.492065   1204.000610  -16002.44140     48.440979
    3389           0     -1719.492065   1204.000610  -16358.53808     48.300014
    3390           0     -1719.492065   1204.000610  -16714.63671     48.353588
    3391           0     -1719.492065   1204.000610  -17070.73437     48.471615
    3392           0     -1719.492065   1204.000610  -17426.83007     48.741188
    3393           0     -1719.492065   1204.000610  -17782.92773     49.156143
    3394           0     -1719.492065   1204.000610  -18139.02539     49.748665
    3395           0     -1719.492065   1204.000610  -18495.12304     50.513233
    3396           0     -1719.492065   1204.000610  -18851.22070     51.420853
    3397           0     -1719.492065   1204.000610  -19207.31835     52.418484
    3398           0     -1719.492065   1204.000610  -19563.41796     53.436649
    3399           0     -1719.492065   1204.000610  -19919.51367     54.399448
    3400           0     -1719.492065   1204.000610  -20275.61132     55.230934
    3401           0     -1719.492065   1204.000610  -20631.70898     55.861538
    3402           0     -1719.492065   1204.000610  -20987.80664     56.230659
    3403           0     -1719.492065   1204.000610  -21343.90234     56.288990
    3404           0     -1719.492065   1204.000610  -21700.00000     55.998711
    3405           0     -1719.492065   1204.000610  -22056.09765     55.334385
    3406           0     -1719.492065   1204.000610  -22412.19726     54.282871
    3407           0     -1719.492065   1204.000610  -22768.29492     52.844643
    3408           0     -1719.492065   1204.000610  -23124.39062     51.034370
    3409           0     -1719.492065   1204.000610  -23480.48828     48.883709
    3410           0     -1719.492065   1204.000610  -23836.58789     46.441944
    3411           0     -1719.492065   1204.000610  -24192.68554     43.780567
    3412           0     -1719.492065   1204.000488  -24548.78125     40.991112
    3413           0     -1719.492065   1204.000488  -24904.87890     38.189266
    3414           0     -1719.492065   1204.000488  -25260.97460     35.499912
    3415           0     -1719.492065   1204.000488  -25617.07226     33.050777
    3416           0     -1719.492065   1204.000488  -25973.17187     30.928232
    3417           0     -1719.492065   1204.000488  -26329.26953     29.159721
    3418           0     -1719.492065   1204.000488  -26685.36914     27.678505
    3419           0     -1719.492065   1204.000488  -27041.46484     26.401981
    3420           0     -1719.492065   1204.000488  -27397.56250     25.267799
    3421           0     -1719.492065   1204.000488  -27753.66015     24.307404
    3422           0     -1719.492065   1204.000488  -28109.75781     23.492674
    3423           0     -1719.492065   1204.000488  -28465.85351     22.966656
    3424           0     -1719.492065   1204.000610  -28821.94921     22.567570
    3425           0     -1786.589355   1101.984009  -14578.05078     46.936413
    3426           0     -1786.589355   1101.984009  -14934.14843     48.674904
    3427           0     -1786.589355   1101.984009  -15290.24609     47.368404
    3428           0     -1786.589355   1101.984009  -15646.34277     46.876839
    3429           0     -1786.589355   1101.984009  -16002.44140     46.545158
    3430           0     -1786.589355   1101.984009  -16358.53808     46.189175
    3431           0     -1786.589355   1101.984009  -16714.63671     46.102009
    3432           0     -1786.589355   1101.984009  -17070.73437     46.129509
    3433           0     -1786.589355   1101.984009  -17426.83203     46.411903
    3434           0     -1786.589355   1101.984009  -17782.92968     46.965523
    3435           0     -1786.589355   1101.984009  -18139.02539     47.835842
    3436           0     -1786.589355   1101.984009  -18495.12304     48.995735
    3437           0     -1786.589355   1101.984009  -18851.22070     50.383049
    3438           0     -1786.589355   1101.984009  -19207.31835     51.905228
    3439           0     -1786.589355   1101.984009  -19563.41796     53.459717
    3440           0     -1786.589355   1101.984009  -19919.51562     54.946133
    3441           0     -1786.589355   1101.984009  -20275.61132     56.275036
    3442           0     -1786.589355   1101.984009  -20631.70898     57.370525
    3443           0     -1786.589355   1101.984009  -20987.80664     58.171364
    3444           0     -1786.589355   1101.984009  -21343.90234     58.629238
    3445           0     -1786.589355   1101.984009  -21700.00000     58.707890
    3446           0     -1786.589355   1101.984009  -22056.09765     58.381397
    3447           0     -1786.589355   1101.984009  -22412.19726     57.634090
    3448           0     -1786.589355   1101.984009  -22768.29296     56.460297
    3449           0     -1786.589355   1101.984009  -23124.39062     54.865902
    3450           0     -1786.589355   1101.984009  -23480.48828     52.870193
    3451           0     -1786.589355   1101.984009  -23836.58789     50.509098
    3452           0     -1786.589355   1101.984009  -24192.68359     47.839554
    3453           0     -1786.589355   1101.984009  -24548.78125     44.941772
    3454           0     -1786.589355   1101.984009  -24904.87890     41.925919
    3455           0     -1786.589355   1101.984009  -25260.97656     38.927376
    3456           0     -1786.589355   1101.984009  -25617.07421     36.104431
    3457           0     -1786.589355   1101.984009  -25973.17187     33.604519
    3458           0     -1786.589355   1101.984009  -26329.26953     31.533241
    3459           0     -1786.589355   1101.984009  -26685.36914     29.880093
    3460           0     -1786.589355   1101.984009  -27041.46484     28.537752
    3461           0     -1786.589355   1101.984009  -27397.56250     27.360367
    3462           0     -1786.589478   1101.984009  -27753.66015     26.300442
    3463           0     -1786.589478   1101.984009  -28109.75781     25.312084
    3464           0     -1786.589478   1101.984009  -28465.85351     24.509943
    3465           0     -1786.589355   1101.984009  -28821.95312     23.862087
    3466           0     -1847.641357    996.238708  -14578.05078     48.177788
    3467           0     -1847.641357    996.238708  -14934.14843     49.597622
    3468           0     -1847.641357    996.238770  -15290.24609     47.735203
    3469           0     -1847.641357    996.238770  -15646.34277     46.767380
    3470           0     -1847.641357    996.238770  -16002.44140     46.007801
    3471           0     -1847.641357    996.238770  -16358.53808     45.246223
    3472           0     -1847.641357    996.238770  -16714.63671     44.816769
    3473           0     -1847.641357    996.238770  -17070.73437     44.581718
    3474           0     -1847.641357    996.238770  -17426.83203     44.752541
    3475           0     -1847.641357    996.238770  -17782.92968     45.360874
    3476           0     -1847.641357    996.238770  -18139.02539     46.428127
    3477           0     -1847.641357    996.238770  -18495.12304     47.875381
    3478           0     -1847.641357    996.238770  -18851.22070     49.588226
    3479           0     -1847.641357    996.238770  -19207.31835     51.435226
    3480           0     -1847.641357    996.238770  -19563.41796     53.292526
    3481           0     -1847.641357    996.238770  -19919.51562     55.054699
    3482           0     -1847.641357    996.238770  -20275.61132     56.636982
    3483           0     -1847.641357    996.238770  -20631.70898     57.973633
    3484           0     -1847.641357    996.238770  -20987.80664     59.014214
    3485           0     -1847.641357    996.238770  -21343.90429     59.720188
    3486           0     -1847.641357    996.238770  -21700.00195     60.061771
    3487           0     -1847.641357    996.238770  -22056.09765     60.016075
    3488           0     -1847.641357    996.238770  -22412.19726     59.565773
    3489           0     -1847.641357    996.238770  -22768.29296     58.699196
    3490           0     -1847.641357    996.238770  -23124.39062     57.410896
    3491           0     -1847.641357    996.238770  -23480.48828     55.703987
    3492           0     -1847.641357    996.238770  -23836.58789     53.592999
    3493           0     -1847.641357    996.238770  -24192.68554     51.109241
    3494           0     -1847.641357    996.238831  -24548.78125     48.304726
    3495           0     -1847.641357    996.238831  -24904.87890     45.262989
    3496           0     -1847.641357    996.238831  -25260.97656     42.100094
    3497           0     -1847.641357    996.238831  -25617.07226     38.972252
    3498           0     -1847.641357    996.238831  -25973.17187     36.061462
    3499           0     -1847.641357    996.238831  -26329.26953     33.553181
    3500           0     -1847.641357    996.238831  -26685.36914     31.563932
    3501           0     -1847.641357    996.238831  -27041.46484     30.060179
    3502           0     -1847.641357    996.238831  -27397.56250     28.875839
    3503           0     -1847.641357    996.238831  -27753.66015     27.843758
    3504           0     -1847.641357    996.238831  -28109.75781     26.869064
    3505           0     -1847.641357    996.238831  -28465.85351     26.068783
    3506           0     -1847.641357    996.238770  -28821.95117     25.324152
    3507           0     -1902.441650    887.122437  -14578.05078     51.569752
    3508           0     -1902.441650    887.122437  -14934.14843     52.749405
    3509           0     -1902.441650    887.122437  -15290.24609     49.981007
    3510           0     -1902.441650    887.122437  -15646.34277     48.384819
    3511           0     -1902.441650    887.122437  -16002.44140     46.967022
    3512           0     -1902.441650    887.122437  -16358.53808     45.580647
    3513           0     -1902.441650    887.122437  -16714.63671     44.586769
    3514           0     -1902.441650    887.122437  -17070.73437     43.912777
    3515           0     -1902.441650    887.122437  -17426.83007     43.826374
    3516           0     -1902.441650    887.122437  -17782.92773     44.323544
    3517           0     -1902.441650    887.122437  -18139.02539     45.361839
    3518           0     -1902.441650    887.122437  -18495.12304     46.802872
    3519           0     -1902.441650    887.122437  -18851.22070     48.496258
    3520           0     -1902.441650    887.122437  -19207.31835     50.299389
    3521           0     -1902.441650    887.122437  -19563.41796     52.096043
    3522           0     -1902.441650    887.122437  -19919.51367     53.796429
    3523           0     -1902.441650    887.122437  -20275.61132     55.334316
    3524           0     -1902.441650    887.122437  -20631.70898     56.659988
    3525           0     -1902.441650    887.122437  -20987.80664     57.736431
    3526           0     -1902.441650    887.122437  -21343.90234     58.534122
    3527           0     -1902.441650    887.122437  -21700.00000     59.029144
    3528           0     -1902.441650    887.122437  -22056.09765     59.200512
    3529           0     -1902.441650    887.122437  -22412.19726     59.029713
    3530           0     -1902.441650    887.122437  -22768.29492     58.499775
    3531           0     -1902.441650    887.122437  -23124.39062     57.596172
    3532           0     -1902.441650    887.122437  -23480.48828     56.307274
    3533           0     -1902.441650    887.122437  -23836.58789     54.627655
    3534           0     -1902.441650    887.122437  -24192.68554     52.560020
    3535           0     -1902.441650    887.122437  -24548.78125     50.123665
    3536           0     -1902.441650    887.122437  -24904.87890     47.359238
    3537           0     -1902.441650    887.122437  -25260.97460     44.341076
    3538           0     -1902.441650    887.122437  -25617.07226     41.184284
    3539           0     -1902.441650    887.122437  -25973.17187     38.056580
    3540           0     -1902.441650    887.122437  -26329.26953     35.166798
    3541           0     -1902.441650    887.122437  -26685.36914     32.754562
    3542           0     -1902.441650    887.122437  -27041.46484     30.957727
    3543           0     -1902.441650    887.122437  -27397.56250     29.751272
    3544           0     -1902.441650    887.122437  -27753.66015     28.893101
    3545           0     -1902.441650    887.122437  -28109.75781     28.191481
    3546           0     -1902.441650    887.122437  -28465.85351     27.791180
    3547           0     -1902.441650    887.122437  -28821.94921     27.148041
    3548           0     -1950.804565    775.004395  -14578.05078     57.213612
    3549           0     -1950.804565    775.004395  -14934.14843     58.212563
    3550           0     -1950.804565    775.004395  -15290.24609     54.186817
    3551           0     -1950.804565    775.004395  -15646.34277     51.817245
    3552           0     -1950.804565    775.004395  -16002.44140     49.488781
    3553           0     -1950.804565    775.004395  -16358.53808     47.237770
    3554           0     -1950.804565    775.004395  -16714.63671     45.451481
    3555           0     -1950.804565    775.004395  -17070.73437     44.136864
    3556           0     -1950.804565    775.004395  -17426.83203     43.537727
    3557           0     -1950.804565    775.004395  -17782.92968     43.571728
    3558           0     -1950.804565    775.004395  -18139.02539     44.150230
    3559           0     -1950.804565    775.004395  -18495.12304     45.123207
    3560           0     -1950.804565    775.004395  -18851.22070     46.352600
    3561           0     -1950.804565    775.004395  -19207.31835     47.720421
    3562           0     -1950.804565    775.004395  -19563.41796     49.133549
    3563           0     -1950.804565    775.004395  -19919.51562     50.518917
    3564           0     -1950.804565    775.004395  -20275.61132     51.819714
    3565           0     -1950.804565    775.004395  -20631.70898     52.989861
    3566           0     -1950.804565    775.004395  -20987.80664     53.991837
    3567           0     -1950.804565    775.004395  -21343.90234     54.794197
    3568           0     -1950.804565    775.004395  -21700.00000     55.370033
    3569           0     -1950.804565    775.004395  -22056.09765     55.696526
    3570           0     -1950.804565    775.004395  -22412.19726     55.753365
    3571           0     -1950.804565    775.004395  -22768.29296     55.522957
    3572           0     -1950.804565    775.004395  -23124.39062     54.989212
    3573           0     -1950.804565    775.004395  -23480.48828     54.137695
    3574           0     -1950.804565    775.004395  -23836.58789     52.956009
    3575           0     -1950.804565    775.004395  -24192.68359     51.433979
    3576           0     -1950.804565    775.004395  -24548.78125     49.568974
    3577           0     -1950.804565    775.004395  -24904.87890     47.366734
    3578           0     -1950.804565    775.004395  -25260.97656     44.855324
    3579           0     -1950.804565    775.004395  -25617.07421     42.090462
    3580           0     -1950.804565    775.004395  -25973.17187     39.179665
    3581           0     -1950.804565    775.004395  -26329.26953     36.279430
    3582           0     -1950.804565    775.004395  -26685.36914     33.642879
    3583           0     -1950.804565    775.004395  -27041.46484     31.545656
    3584           0     -1950.804565    775.004395  -27397.56250     30.258297
    3585           0     -1950.804565    775.004395  -27753.66015     29.661606
    3586           0     -1950.804565    775.004395  -28109.75781     29.489088
    3587           0     -1950.804565    775.004395  -28465.85351     29.945807
    3588           0     -1950.804565    775.004395  -28821.95312     29.572681
    3589           0     -1992.566650    660.264038  -14578.05078     64.990173
    3590           0     -1992.566650    660.264038  -14934.14843     65.867592
    3591           0     -1992.566650    660.264038  -15290.24609     60.265411
    3592           0     -1992.566650    660.264038  -15646.34277     56.997265
    3593           0     -1992.566650    660.264038  -16002.44140     53.482830
    3594           0     -1992.566650    660.264038  -16358.53808     50.127026
    3595           0     -1992.566650    660.264038  -16714.63671     47.308784
    3596           0     -1992.566650    660.264038  -17070.73437     45.042645
    3597           0     -1992.566650    660.264038  -17426.83203     43.477062
    3598           0     -1992.566650    660.264038  -17782.92968     42.517384
    3599           0     -1992.566650    660.264038  -18139.02539     42.130173
    3600           0     -1992.566650    660.264038  -18495.12304     42.231117
    3601           0     -1992.566650    660.264038  -18851.22070     42.740330
    3602           0     -1992.566650    660.264038  -19207.31835     43.563171
    3603           0     -1992.566650    660.264038  -19563.41796     44.607105
    3604           0     -1992.566650    660.264038  -19919.51562     45.772682
    3605           0     -1992.566650    660.264038  -20275.61132     46.973526
    3606           0     -1992.566650    660.264038  -20631.70898     48.125729
    3607           0     -1992.566650    660.264038  -20987.80664     49.163486
    3608           0     -1992.566650    660.264038  -21343.90429     50.028549
    3609           0     -1992.566650    660.264038  -21700.00195     50.679920
    3610           0     -1992.566650    660.264038  -22056.09765     51.084969
    3611           0     -1992.566650    660.264038  -22412.19726     51.225563
    3612           0     -1992.566650    660.264038  -22768.29296     51.090225
    3613           0     -1992.566650    660.264038  -23124.39062     50.679222
    3614           0     -1992.566650    660.264038  -23480.48828     49.995918
    3615           0     -1992.566650    660.264038  -23836.58789     49.052822
    3616           0     -1992.566650    660.264038  -24192.68554     47.860344
    3617           0     -1992.566650    660.264038  -24548.78125     46.435684
    3618           0     -1992.566650    660.264038  -24904.87890     44.789307
    3619           0     -1992.566650    660.264038  -25260.97656     42.939613
    3620           0     -1992.566650    660.264038  -25617.07226     40.903488
    3621           0     -1992.566650    660.264038  -25973.17187     38.721642
    3622           0     -1992.566650    660.264038  -26329.26953     36.453796
    3623           0     -1992.566650    660.264038  -26685.36914     34.235741
    3624           0     -1992.566650    660.264038  -27041.46484     32.265312
    3625           0     -1992.566650    660.264038  -27397.56250     31.024548
    3626           0     -1992.566650    660.264038  -27753.66015     30.721357
    3627           0     -1992.566650    660.264038  -28109.75781     31.218117
    3628           0     -1992.566650    660.264038  -28465.85351     32.954136
    3629           0     -1992.566650    660.264038  -28821.95117     32.924797
    3630           0     -2027.586426    543.289490  -14578.05078     74.505630
    3631           0     -2027.586426    543.289490  -14934.14843     75.317673
    3632           0     -2027.586426    543.289490  -15290.24609     67.895821
    3633           0     -2027.586426    543.289490  -15646.34277     63.599285
    3634           0     -2027.586426    543.289490  -16002.44140     58.596748
    3635           0     -2027.586426    543.289490  -16358.53808     53.911858
    3636           0     -2027.586426    543.289490  -16714.63671     49.744759
    3637           0     -2027.586426    543.289490  -17070.73437     46.053467
    3638           0     -2027.586426    543.289490  -17426.83007     42.994446
    3639           0     -2027.586426    543.289490  -17782.92773     40.656013
    3640           0     -2027.586426    543.289490  -18139.02539     39.171936
    3641           0     -2027.586426    543.289490  -18495.12304     38.586452
    3642           0     -2027.586426    543.289490  -18851.22070     38.846699
    3643           0     -2027.586426    543.289490  -19207.31835     39.799759
    3644           0     -2027.586426    543.289490  -19563.41796     41.239494
    3645           0     -2027.586426    543.289490  -19919.51367     42.942444
    3646           0     -2027.586426    543.289490  -20275.61132     44.713673
    3647           0     -2027.586426    543.289490  -20631.70898     46.387398
    3648           0     -2027.586426    543.289490  -20987.80664     47.840389
    3649           0     -2027.586426    543.289490  -21343.90234     48.980473
    3650           0     -2027.586426    543.289490  -21700.00000     49.746033
    3651           0     -2027.586426    543.289490  -22056.09765     50.100407
    3652           0     -2027.586426    543.289490  -22412.19726     50.027897
    3653           0     -2027.586426    543.289490  -22768.29492     49.533875
    3654           0     -2027.586426    543.289490  -23124.39062     48.642139
    3655           0     -2027.586426    543.289490  -23480.48828     47.395645
    3656           0     -2027.586426    543.289490  -23836.58789     45.858192
    3657           0     -2027.586426    543.289490  -24192.68554     44.110012
    3658           0     -2027.586426    543.289490  -24548.78125     42.252529
    3659           0     -2027.586426    543.289490  -24904.87890     40.394207
    3660           0     -2027.586426    543.289490  -25260.97460     38.646172
    3661           0     -2027.586426    543.289490  -25617.07226     37.101540
    3662           0     -2027.586426    543.289490  -25973.17187     35.807232
    3663           0     -2027.586426    543.289490  -26329.26953     34.761265
    3664           0     -2027.586426    543.289429  -26685.36914     33.910809
    3665           0     -2027.586426    543.289429  -27041.46484     33.120178
    3666           0     -2027.586426    543.289429  -27397.56250     32.648972
    3667           0     -2027.586426    543.289429  -27753.66015     32.897465
    3668           0     -2027.586426    543.289429  -28109.75781     34.047535
    3669           0     -2027.586426    543.289429  -28465.85351     37.338661
    3670           0     -2027.586426    543.289490  -28821.94921     37.595234
    3671           0     -2055.745605    424.476654  -14578.05078     85.111053
    3672           0     -2055.745605    424.476654  -14934.14843     85.902916
    3673           0     -2055.745605    424.476654  -15290.24609     76.482285
    3674           0     -2055.745605    424.476654  -15646.34277     70.947800
    3675           0     -2055.745605    424.476654  -16002.44140     64.163155
    3676           0     -2055.745605    424.476654  -16358.53808     57.899857
    3677           0     -2055.745605    424.476654  -16714.63671     51.961842
    3678           0     -2055.745605    424.476654  -17070.73437     46.466545
    3679           0     -2055.745605    424.476654  -17426.83203     41.916695
    3680           0     -2055.745605    424.476654  -17782.92968     38.740997
    3681           0     -2055.745605    424.476654  -18139.02539     37.287369
    3682           0     -2055.745605    424.476654  -18495.12304     37.583462
    3683           0     -2055.745605    424.476654  -18851.22070     39.320999
    3684           0     -2055.745605    424.476654  -19207.31835     42.007580
    3685           0     -2055.745605    424.476654  -19563.41796     45.162949
    3686           0     -2055.745605    424.476654  -19919.51562     48.393307
    3687           0     -2055.745605    424.476654  -20275.61132     51.428699
    3688           0     -2055.745605    424.476654  -20631.70898     54.068707
    3689           0     -2055.745605    424.476654  -20987.80664     56.193581
    3690           0     -2055.745605    424.476654  -21343.90234     57.707798
    3691           0     -2055.745605    424.476654  -21700.00000     58.566509
    3692           0     -2055.745605    424.476654  -22056.09765     58.727203
    3693           0     -2055.745605    424.476654  -22412.19726     58.187943
    3694           0     -2055.745605    424.476654  -22768.29296     56.941010
    3695           0     -2055.745605    424.476654  -23124.39062     55.021557
    3696           0     -2055.745605    424.476654  -23480.48828     52.460144
    3697           0     -2055.745605    424.476654  -23836.58789     49.343590
    3698           0     -2055.745605    424.476654  -24192.68359     45.769115
    3699           0     -2055.745605    424.476654  -24548.78125     41.919830
    3700           0     -2055.745605    424.476654  -24904.87890     38.032024
    3701           0     -2055.745605    424.476654  -25260.97656     34.467464
    3702           0     -2055.745605    424.476654  -25617.07421     31.678905
    3703           0     -2055.745605    424.476654  -25973.17187     30.123236
    3704           0     -2055.745605    424.476654  -26329.26953     30.045790
    3705           0     -2055.745605    424.476654  -26685.36914     31.271603
    3706           0     -2055.745605    424.476624  -27041.46484     33.090061
    3707           0     -2055.745605    424.476624  -27397.56250     34.901779
    3708           0     -2055.745605    424.476624  -27753.66015     36.667355
    3709           0     -2055.745605    424.476624  -28109.75781     38.590469
    3710           0     -2055.745605    424.476624  -28465.85351     43.564358
    3711           0     -2055.745605    424.476654  -28821.95312     43.915096
    3712           0     -2076.948730    304.227539  -14578.05078     95.939949
    3713           0     -2076.948730    304.227539  -14934.14843     96.747467
    3714           0     -2076.948730    304.227539  -15290.24609     85.063164
    3715           0     -2076.948730    304.227539  -15646.34277     78.025940
    3716           0     -2076.948730    304.227539  -16002.44140     69.223244
    3717           0     -2076.948730    304.227539  -16358.53808     61.111149
    3718           0     -2076.948730    304.227539  -16714.63671     53.256008
    3719           0     -2076.948730    304.227539  -17070.73437     46.630032
    3720           0     -2076.948730    304.227539  -17426.83203     42.219589
    3721           0     -2076.948730    304.227539  -17782.92968     40.678223
    3722           0     -2076.948730    304.227539  -18139.02539     41.964981
    3723           0     -2076.948730    304.227539  -18495.12304     45.391464
    3724           0     -2076.948730    304.227539  -18851.22070     50.020916
    3725           0     -2076.948730    304.227539  -19207.31835     55.107662
    3726           0     -2076.948730    304.227539  -19563.41796     60.137600
    3727           0     -2076.948730    304.227539  -19919.51562     64.788254
    3728           0     -2076.948730    304.227539  -20275.61132     68.858978
    3729           0     -2076.948730    304.227539  -20631.70898     72.222633
    3730           0     -2076.948730    304.227539  -20987.80664     74.796837
    3731           0     -2076.948730    304.227539  -21343.90429     76.530327
    3732           0     -2076.948730    304.227539  -21700.00195     77.383675
    3733           0     -2076.948730    304.227539  -22056.09765     77.337997
    3734           0     -2076.948730    304.227539  -22412.19726     76.371155
    3735           0     -2076.948730    304.227539  -22768.29296     74.482185
    3736           0     -2076.948730    304.227539  -23124.39062     71.660393
    3737           0     -2076.948730    304.227539  -23480.48828     67.923149
    3738           0     -2076.948730    304.227539  -23836.58789     63.279076
    3739           0     -2076.948730    304.227539  -24192.68554     57.782909
    3740           0     -2076.948730    304.227539  -24548.78125     51.496616
    3741           0     -2076.948730    304.227539  -24904.87890     44.586369
    3742           0     -2076.948730    304.227539  -25260.97656     37.304401
    3743           0     -2076.948730    304.227539  -25617.07226     30.259735
    3744           0     -2076.948730    304.227539  -25973.17187     24.572657
    3745           0     -2076.948730    304.227539  -26329.26953     22.285522
    3746           0     -2076.948730    304.227539  -26685.36914     24.631435
    3747           0     -2076.948730    304.227539  -27041.46484     30.130442
    3748           0     -2076.948730    304.227539  -27397.56250     36.218021
    3749           0     -2076.948730    304.227539  -27753.66015     41.386284
    3750           0     -2076.948730    304.227539  -28109.75781     44.880802
    3751           0     -2076.948730    304.227539  -28465.85351     51.818851
    3752           0     -2076.948730    304.227539  -28821.95117     51.995461
    3753           0     -2091.124023    182.948975  -14578.05078    106.024002
    3754           0     -2091.124023    182.948959  -14934.14843    106.646843
    3755           0     -2091.124023    182.948944  -15290.24609     92.315559
    3756           0     -2091.124023    182.948944  -15646.34277     83.595955
    3757           0     -2091.124023    182.948944  -16002.44140     72.746567
    3758           0     -2091.124023    182.948944  -16358.53808     62.949738
    3759           0     -2091.124023    182.948944  -16714.63671     54.681362
    3760           0     -2091.124023    182.948944  -17070.73437     49.859604
    3761           0     -2091.124023    182.948944  -17426.83007     49.081326
    3762           0     -2091.124023    182.948944  -17782.92773     51.997005
    3763           0     -2091.124023    182.948944  -18139.02539     57.250137
    3764           0     -2091.124023    182.948929  -18495.12304     63.700974
    3765           0     -2091.124023    182.948914  -18851.22070     70.415695
    3766           0     -2091.124023    182.948914  -19207.31835     76.921127
    3767           0     -2091.124023    182.948914  -19563.41796     82.879303
    3768           0     -2091.124023    182.948914  -19919.51367     88.135689
    3769           0     -2091.124023    182.948914  -20275.61132     92.571648
    3770           0     -2091.124023    182.948914  -20631.70898     96.136795
    3771           0     -2091.124023    182.948914  -20987.80664     98.783775
    3772           0     -2091.124023    182.948914  -21343.90234    100.494659
    3773           0     -2091.124023    182.948898  -21700.00000    101.244308
    3774           0     -2091.124023    182.948883  -22056.09765    101.019760
    3775           0     -2091.124023    182.948883  -22412.19726     99.802574
    3776           0     -2091.124023    182.948883  -22768.29492     97.572258
    3777           0     -2091.124023    182.948883  -23124.39062     94.314026
    3778           0     -2091.124023    182.948883  -23480.48828     89.994179
    3779           0     -2091.124023    182.948868  -23836.58789     84.604141
    3780           0     -2091.124023    182.948868  -24192.68554     78.100166
    3781           0     -2091.124023    182.948868  -24548.78125     70.488228
    3782           0     -2091.124023    182.948868  -24904.87890     61.738285
    3783           0     -2091.124023    182.948853  -25260.97460     51.903400
    3784           0     -2091.124023    182.948853  -25617.07226     41.078987
    3785           0     -2091.124023    182.948853  -25973.17187     29.627897
    3786           0     -2091.124023    182.948837  -26329.26953     18.863590
    3787           0     -2091.124023    182.948837  -26685.36914     14.443014
    3788           0     -2091.124023    182.948837  -27041.46484     21.983301
    3789           0     -2091.124023    182.948837  -27397.56250     33.977398
    3790           0     -2091.124023    182.948822  -27753.66015     45.041710
    3791           0     -2091.124023    182.948822  -28109.75781     51.897472
    3792           0     -2091.124023    182.948822  -28465.85351     61.745811
    3793           0     -2091.124023    182.948898  -28821.94921     61.592777
    3794           0     -2098.223633     61.051418  -14578.05078    114.150810
    3795           0     -2098.223633     61.051414  -14934.14843    113.990349
    3796           0     -2098.223633     61.051407  -15290.24609     96.758369
    3797           0     -2098.223633     61.051407  -15646.34277     86.745461
    3798           0     -2098.223633     61.051399  -16002.44140     74.512207
    3799           0     -2098.223633     61.051395  -16358.53808     65.513252
    3800           0     -2098.223633     61.051395  -16714.63671     61.021282
    3801           0     -2098.223633     61.051392  -17070.73437     61.792076
    3802           0     -2098.223633     61.051384  -17426.83203     66.264748
    3803           0     -2098.223633     61.051384  -17782.92968     73.066368
    3804           0     -2098.223633     61.051384  -18139.02539     80.617889
    3805           0     -2098.223633     61.051376  -18495.12304     88.317932
    3806           0     -2098.223633     61.051373  -18851.22070     95.549332
    3807           0     -2098.223633     61.051373  -19207.31835    102.174416
    3808           0     -2098.223633     61.051369  -19563.41796    107.997162
    3809           0     -2098.223633     61.051361  -19919.51562    112.983055
    3810           0     -2098.223633     61.051361  -20275.61132    117.097427
    3811           0     -2098.223633     61.051357  -20631.70898    120.309242
    3812           0     -2098.223633     61.051353  -20987.80664    122.645966
    3813           0     -2098.223633     61.051353  -21343.90234    124.059761
    3814           0     -2098.223633     61.051346  -21700.00000    124.595932
    3815           0     -2098.223633     61.051342  -22056.09765    124.189590
    3816           0     -2098.223633     61.051342  -22412.19726    122.878944
    3817           0     -2098.223633     61.051338  -22768.29296    120.588638
    3818           0     -2098.223633     61.051331  -23124.39062    117.332123
    3819           0     -2098.223633     61.051331  -23480.48828    113.031342
    3820           0     -2098.223633     61.051323  -23836.58789    107.659309
    3821           0     -2098.223633     61.051319  -24192.68359    101.146889
    3822           0     -2098.223633     61.051319  -24548.78125     93.409218
    3823           0     -2098.223633     61.051315  -24904.87890     84.403946
    3824           0     -2098.223633     61.051308  -25260.97656     73.973541
    3825           0     -2098.223633     61.051308  -25617.07421     62.139309
    3826           0     -2098.223633     61.051308  -25973.17187     48.709400
    3827           0     -2098.223633     61.051300  -26329.26953     33.938244
    3828           0     -2098.223633     61.051296  -26685.36914     18.577856
    3829           0     -2098.223633     61.051296  -27041.46484     11.568282
    3830           0     -2098.223633     61.051292  -27397.56250     26.026125
    3831           0     -2098.223633     61.051285  -27753.66015     44.576736
    3832           0     -2098.223633     61.051285  -28109.75781     57.448227
    3833           0     -2098.223633     61.051281  -28465.85351     72.028580
    3834           0     -2098.223633     61.051346  -28821.95312     72.026772
    3835           0     -2098.223633    -61.052704  -14578.05078    118.750519
    3836           0     -2098.223633    -61.052704  -14934.14843    116.630173
    3837           0     -2098.223633    -61.052704  -15290.24609     97.897675
    3838           0     -2098.223633    -61.052704  -15646.34277     88.118149
    3839           0     -2098.223633    -61.052704  -16002.44140     78.191635
    3840           0     -2098.223633    -61.052704  -16358.53808     75.427567
    3841           0     -2098.223633    -61.052704  -16714.63671     78.006813
    3842           0     -2098.223633    -61.052704  -17070.73437     83.957718
    3843           0     -2098.223633    -61.052704  -17426.83203     91.422081
    3844           0     -2098.223633    -61.052704  -17782.92968     99.263855
    3845           0     -2098.223633    -61.052704  -18139.02539    106.814163
    3846           0     -2098.223633    -61.052704  -18495.12304    113.815689
    3847           0     -2098.223633    -61.052704  -18851.22070    120.038933
    3848           0     -2098.223633    -61.052704  -19207.31835    125.526901
    3849           0     -2098.223633    -61.052704  -19563.41796    130.147400
    3850           0     -2098.223633    -61.052704  -19919.51562    134.043915
    3851           0     -2098.223633    -61.052704  -20275.61132    137.089096
    3852           0     -2098.223633    -61.052704  -20631.70898    139.458588
    3853           0     -2098.223633    -61.052704  -20987.80664    141.008057
    3854           0     -2098.223633    -61.052704  -21343.90429    141.915588
    3855           0     -2098.223633    -61.052704  -21700.00195    142.017776
    3856           0     -2098.223633    -61.052704  -22056.09765    141.478607
    3857           0     -2098.223633    -61.052704  -22412.19726    140.117615
    3858           0     -2098.223633    -61.052704  -22768.29296    138.072708
    3859           0     -2098.223633    -61.052704  -23124.39062    135.149841
    3860           0     -2098.223633    -61.052704  -23480.48828    131.448624
    3861           0     -2098.223633    -61.052704  -23836.58789    126.764931
    3862           0     -2098.223633    -61.052704  -24192.68554    121.145866
    3863           0     -2098.223633    -61.052704  -24548.78125    114.379692
    3864           0     -2098.223633    -61.052704  -24904.87890    106.443306
    3865           0     -2098.223633    -61.052711  -25260.97656     97.120605
    3866           0     -2098.223633    -61.052711  -25617.07226     86.300774
    3867           0     -2098.223633    -61.052711  -25973.17187     73.788353
    3868           0     -2098.223633    -61.052711  -26329.26953     59.438435
    3869           0     -2098.223633    -61.052711  -26685.36914     43.397118
    3870           0     -2098.223633    -61.052711  -27041.46484     27.153572
    3871           0     -2098.223633    -61.052711  -27397.56250     20.670502
    3872           0     -2098.223633    -61.052711  -27753.66015     38.118500
    3873           0     -2098.223633    -61.052711  -28109.75781     58.056725
    3874           0     -2098.223633    -61.052711  -28465.85351     80.156860
    3875           0     -2098.223633    -61.052708  -28821.95117     81.641113
    3876           0     -2091.123779   -182.950317  -14578.05078    117.125908
    3877           0     -2091.123779   -182.950317  -14934.14843    113.553719
    3878           0     -2091.123779   -182.950317  -15290.24609     98.828758
    3879           0     -2091.123779   -182.950317  -15646.34277     94.244591
    3880           0     -2091.123779   -182.950317  -16002.44140     92.875336
    3881           0     -2091.123779   -182.950333  -16358.53808     98.305634
    3882           0     -2091.123779   -182.950333  -16714.63671    104.682076
    3883           0     -2091.123779   -182.950348  -17070.73437    111.954147
    3884           0     -2091.123779   -182.950348  -17426.83007    118.542770
    3885           0     -2091.123779   -182.950348  -17782.92773    124.672615
    3886           0     -2091.123779   -182.950348  -18139.02539    129.937973
    3887           0     -2091.123779   -182.950348  -18495.12304    134.467636
    3888           0     -2091.123779   -182.950363  -18851.22070    138.282684
    3889           0     -2091.123779   -182.950363  -19207.31835    141.355118
    3890           0     -2091.123779   -182.950363  -19563.41796    143.887161
    3891           0     -2091.123779   -182.950378  -19919.51367    145.739838
    3892           0     -2091.123779   -182.950378  -20275.61132    147.186249
    3893           0     -2091.123779   -182.950378  -20631.70898    148.021698
    3894           0     -2091.123779   -182.950378  -20987.80664    148.535507
    3895           0     -2091.123779   -182.950378  -21343.90234    148.485214
    3896           0     -2091.123779   -182.950378  -21700.00000    148.150467
    3897           0     -2091.123779   -182.950394  -22056.09765    147.264404
    3898           0     -2091.123779   -182.950394  -22412.19726    146.085327
    3899           0     -2091.123779   -182.950394  -22768.29492    144.325211
    3900           0     -2091.123779   -182.950409  -23124.39062    142.213181
    3901           0     -2091.123779   -182.950409  -23480.48828    139.442169
    3902           0     -2091.123779   -182.950409  -23836.58789    136.199112
    3903           0     -2091.123779   -182.950409  -24192.68554    132.162491
    3904           0     -2091.123779   -182.950409  -24548.78125    127.451340
    3905           0     -2091.123779   -182.950409  -24904.87890    121.743523
    3906           0     -2091.123779   -182.950424  -25260.97460    115.043343
    3907           0     -2091.123779   -182.950424  -25617.07226    107.053383
    3908           0     -2091.123779   -182.950424  -25973.17187     97.599434
    3909           0     -2091.123779   -182.950424  -26329.26953     86.452950
    3910           0     -2091.123779   -182.950439  -26685.36914     73.315651
    3911           0     -2091.123779   -182.950439  -27041.46484     58.372169
    3912           0     -2091.123779   -182.950439  -27397.56250     43.277725
    3913           0     -2091.123779   -182.950455  -27753.66015     37.420383
    3914           0     -2091.123779   -182.950455  -28109.75781     52.241772
    3915           0     -2091.123779   -182.950455  -28465.85351     81.571152
    3916           0     -2091.123779   -182.950378  -28821.94921     87.923767
    3917           0     -2076.948242   -304.228821  -14578.05078    106.399704
    3918           0     -2076.948242   -304.228821  -14934.14843    110.339226
    3919           0     -2076.948242   -304.228821  -15290.24609    114.487129
    3920           0     -2076.948242   -304.228821  -15646.34277    116.450745
    3921           0     -2076.948242   -304.228821  -16002.44140    124.313881
    3922           0     -2076.948242   -304.228821  -16358.53808    129.400345
    3923           0     -2076.948242   -304.228821  -16714.63671    134.614807
    3924           0     -2076.948242   -304.228821  -17070.73437    137.934616
    3925           0     -2076.948242   -304.228821  -17426.83203    140.660660
    3926           0     -2076.948242   -304.228821  -17782.92968    142.438217
    3927           0     -2076.948242   -304.228821  -18139.02539    143.462326
    3928           0     -2076.948242   -304.228851  -18495.12304    144.089432
    3929           0     -2076.948242   -304.228882  -18851.22070    144.030090
    3930           0     -2076.948242   -304.228882  -19207.31835    143.866608
    3931           0     -2076.948242   -304.228882  -19563.41796    143.164017
    3932           0     -2076.948242   -304.228882  -19919.51562    142.509583
    3933           0     -2076.948242   -304.228882  -20275.61132    141.467178
    3934           0     -2076.948242   -304.228882  -20631.70898    140.548569
    3935           0     -2076.948242   -304.228882  -20987.80664    139.361526
    3936           0     -2076.948242   -304.228882  -21343.90234    138.330322
    3937           0     -2076.948242   -304.228882  -21700.00000    137.103622
    3938           0     -2076.948242   -304.228882  -22056.09765    136.036926
    3939           0     -2076.948242   -304.228882  -22412.19726    134.794266
    3940           0     -2076.948242   -304.228882  -22768.29296    133.693390
    3941           0     -2076.948242   -304.228882  -23124.39062    132.375717
    3942           0     -2076.948242   -304.228882  -23480.48828    131.154770
    3943           0     -2076.948242   -304.228882  -23836.58789    129.609329
    3944           0     -2076.948242   -304.228912  -24192.68359    128.073868
    3945           0     -2076.948242   -304.228912  -24548.78125    126.033607
    3946           0     -2076.948242   -304.228912  -24904.87890    123.842438
    3947           0     -2076.948242   -304.228943  -25260.97656    120.895218
    3948           0     -2076.948242   -304.228943  -25617.07421    117.491219
    3949           0     -2076.948242   -304.228943  -25973.17187    113.028839
    3950           0     -2076.948242   -304.228943  -26329.26953    107.498260
    3951           0     -2076.948242   -304.228943  -26685.36914    100.605759
    3952           0     -2076.948242   -304.228943  -27041.46484     91.451027
    3953           0     -2076.948242   -304.228943  -27397.56250     80.813698
    3954           0     -2076.948242   -304.228943  -27753.66015     67.307350
    3955           0     -2076.948242   -304.228943  -28109.75781     59.769196
    3956           0     -2076.948242   -304.228943  -28465.85351     74.404518
    3957           0     -2076.948242   -304.228882  -28821.95312     84.303650
    3958           0     -2055.882568   -423.897186  -14578.05078     95.676392
    3959           0     -2055.882568   -423.897186  -14934.14843    138.673538
    3960           0     -2055.882568   -423.897186  -15290.24609    162.257141
    3961           0     -2055.882568   -423.897186  -15646.34277    157.335052
    3962           0     -2055.882568   -423.897186  -16002.44140    163.411148
    3963           0     -2055.882568   -423.897186  -16358.53808    158.692780
    3964           0     -2055.882568   -423.897186  -16714.63671    158.176834
    3965           0     -2055.882568   -423.897186  -17070.73437    153.017715
    3966           0     -2055.882568   -423.897186  -17426.83203    150.165527
    3967           0     -2055.882568   -423.897186  -17782.92968    144.867584
    3968           0     -2055.882568   -423.897186  -18139.02539    141.027496
    3969           0     -2055.882568   -423.897217  -18495.12304    135.867401
    3970           0     -2055.882568   -423.897217  -18851.22070    131.729568
    3971           0     -2055.882568   -423.897217  -19207.31835    126.946548
    3972           0     -2055.882568   -423.897217  -19563.41796    122.949875
    3973           0     -2055.882568   -423.897217  -19919.51562    118.740410
    3974           0     -2055.882568   -423.897217  -20275.61132    115.182930
    3975           0     -2055.882568   -423.897217  -20631.70898    111.698853
    3976           0     -2055.882568   -423.897217  -20987.80664    108.789330
    3977           0     -2055.882568   -423.897217  -21343.90429    106.145676
    3978           0     -2055.882568   -423.897217  -21700.00195    104.034805
    3979           0     -2055.882568   -423.897217  -22056.09765    102.315979
    3980           0     -2055.882568   -423.897217  -22412.19726    101.110634
    3981           0     -2055.882568   -423.897217  -22768.29296    100.365173
    3982           0     -2055.882568   -423.897247  -23124.39062    100.124763
    3983           0     -2055.882568   -423.897247  -23480.48828    100.346863
    3984           0     -2055.882568   -423.897247  -23836.58789    101.062012
    3985           0     -2055.882568   -423.897247  -24192.68554    102.164162
    3986           0     -2055.882568   -423.897247  -24548.78125    103.729973
    3987           0     -2055.882568   -423.897247  -24904.87890    105.516579
    3988           0     -2055.882568   -423.897247  -25260.97656    107.705307
    3989           0     -2055.882568   -423.897247  -25617.07226    109.852661
    3990           0     -2055.882568   -423.897247  -25973.17187    112.280396
    3991           0     -2055.882568   -423.897247  -26329.26953    114.290367
    3992           0     -2055.882568   -423.897247  -26685.36914    116.316986
    3993           0     -2055.882568   -423.897247  -27041.46484    117.203812
    3994           0     -2055.882568   -423.897247  -27397.56250    117.660713
    3995           0     -2055.882568   -423.897247  -27753.66015    113.572517
    3996           0     -2055.882568   -423.897247  -28109.75781    112.100090
    3997           0     -2055.882568   -423.897247  -28465.85351     90.240219
    3998           0     -2055.882568   -423.897217  -28821.95117     67.638771
    3999           0     -2028.065186   -541.566406  -14578.05078    183.496277
    4000           0     -2028.065186   -541.566406  -14934.14843    246.644485
    4001           0     -2028.065186   -541.566406  -15290.24609    226.926880
    4002           0     -2028.065186   -541.566406  -15646.34277    206.218307
    4003           0     -2028.065186   -541.566406  -16002.44140    193.030228
    4004           0     -2028.065186   -541.566406  -16358.53808    176.266724
    4005           0     -2028.065186   -541.566406  -16714.63671    163.353821
    4006           0     -2028.065186   -541.566406  -17070.73437    149.837753
    4007           0     -2028.065186   -541.566406  -17426.83203    138.029739
    4008           0     -2028.065186   -541.566406  -17782.92968    126.514824
    4009           0     -2028.065186   -541.566406  -18139.02539    116.069984
    4010           0     -2028.065186   -541.566406  -18495.12304    106.157814
    4011           0     -2028.065186   -541.566406  -18851.22070     97.186989
    4012           0     -2028.065186   -541.566406  -19207.31835     88.770309
    4013           0     -2028.065186   -541.566406  -19563.41796     81.289886
    4014           0     -2028.065186   -541.566406  -19919.51562     74.289597
    4015           0     -2028.065186   -541.566406  -20275.61328     68.221428
    4016           0     -2028.065186   -541.566406  -20631.70898     62.515068
    4017           0     -2028.065186   -541.566406  -20987.80664     57.731621
    4018           0     -2028.065186   -541.566406  -21343.90429     53.200939
    4019           0     -2028.065186   -541.566406  -21700.00000     49.638412
    4020           0     -2028.065186   -541.566406  -22056.09765     46.311844
    4021           0     -2028.065186   -541.566406  -22412.19726     44.146755
    4022           0     -2028.065186   -541.566406  -22768.29296     42.387573
    4023           0     -2028.065186   -541.566467  -23124.39062     42.162430
    4024           0     -2028.065186   -541.566467  -23480.48828     42.680080
    4025           0     -2028.065186   -541.566467  -23836.58789     45.059109
    4026           0     -2028.065186   -541.566467  -24192.68359     48.435219
    4027           0     -2028.065186   -541.566467  -24548.78125     53.634186
    4028           0     -2028.065186   -541.566467  -24904.87890     59.890503
    4029           0     -2028.065186   -541.566467  -25260.97656     67.650406
    4030           0     -2028.065186   -541.566467  -25617.07226     76.527863
    4031           0     -2028.065186   -541.566467  -25973.17187     86.595001
    4032           0     -2028.065186   -541.566467  -26329.26953     97.947159
    4033           0     -2028.065186   -541.566467  -26685.36914    110.486259
    4034           0     -2028.065186   -541.566467  -27041.46484    124.319733
    4035           0     -2028.065186   -541.566467  -27397.56250    140.458984
    4036           0     -2028.065186   -541.566467  -27753.66015    156.201630
    4037           0     -2028.065186   -541.566467  -28109.75781    177.401886
    4038           0     -2028.065186   -541.566467  -28465.85351    199.185623
    4039           0     -2028.065186   -541.566406  -28821.95117    137.840317
    4040           0     -1992.907837   -659.121582  -14578.05078    197.565613
    4041           0     -1992.907837   -659.121582  -14934.14843    234.272217
    4042           0     -1992.907837   -659.121582  -15290.24609    212.936951
    4043           0     -1992.907837   -659.121582  -15646.34277    195.294189
    4044           0     -1992.907837   -659.121582  -16002.44140    180.861298
    4045           0     -1992.907837   -659.121582  -16358.53808    168.385284
    4046           0     -1992.907837   -659.121582  -16714.63671    155.367661
    4047           0     -1992.907837   -659.121582  -17070.73437    145.555389
    4048           0     -1992.907837   -659.121582  -17426.83203    134.194321
    4049           0     -1992.907837   -659.121582  -17782.92968    125.698647
    4050           0     -1992.907837   -659.121582  -18139.02539    115.884201
    4051           0     -1992.907837   -659.121582  -18495.12304    108.374977
    4052           0     -1992.907837   -659.121582  -18851.22070    100.023109
    4053           0     -1992.907837   -659.121582  -19207.31835     93.517937
    4054           0     -1992.907837   -659.121582  -19563.41796     86.595055
    4055           0     -1992.907837   -659.121582  -19919.51562     81.195847
    4056           0     -1992.907837   -659.121582  -20275.61132     75.702667
    4057           0     -1992.907837   -659.121582  -20631.70898     71.530724
    4058           0     -1992.907837   -659.121582  -20987.80664     67.514030
    4059           0     -1992.907837   -659.121582  -21343.90429     64.723587
    4060           0     -1992.907837   -659.121582  -21700.00195     62.297352
    4061           0     -1992.907837   -659.121582  -22056.09765     61.092564
    4062           0     -1992.907837   -659.121582  -22412.19726     60.424301
    4063           0     -1992.907837   -659.121582  -22768.29296     61.022900
    4064           0     -1992.907837   -659.121582  -23124.39062     62.253914
    4065           0     -1992.907837   -659.121582  -23480.48828     64.796921
    4066           0     -1992.907837   -659.121582  -23836.58789     67.946808
    4067           0     -1992.907837   -659.121582  -24192.68359     72.442314
    4068           0     -1992.907837   -659.121582  -24548.78125     77.396172
    4069           0     -1992.907837   -659.121582  -24904.87890     83.762871
    4070           0     -1992.907837   -659.121582  -25260.97656     90.354774
    4071           0     -1992.907837   -659.121582  -25617.07421     98.518219
    4072           0     -1992.907837   -659.121582  -25973.17187    106.673309
    4073           0     -1992.907837   -659.121582  -26329.26953    116.642517
    4074           0     -1992.907837   -659.121582  -26685.36718    126.637192
    4075           0     -1992.907837   -659.121582  -27041.46484    138.411484
    4076           0     -1992.907837   -659.121582  -27397.56250    151.439590
    4077           0     -1992.907837   -659.121582  -27753.66015    164.098526
    4078           0     -1992.907837   -659.121582  -28109.75781    181.657990
    4079           0     -1992.907837   -659.121582  -28465.85546    197.689758
    4080           0     -1992.907837   -659.121582  -28821.95312    138.188507
    4081           0     -1950.803955   -775.005493  -14578.05078    149.912872
    4082           0     -1950.803955   -775.005493  -14934.14843    161.698700
    4083           0     -1950.803955   -775.005493  -15290.24609    158.205536
    4084           0     -1950.803955   -775.005493  -15646.34277    153.143555
    4085           0     -1950.803955   -775.005493  -16002.44140    151.899338
    4086           0     -1950.803955   -775.005493  -16358.53808    148.537262
    4087           0     -1950.803955   -775.005493  -16714.63671    145.309296
    4088           0     -1950.803955   -775.005493  -17070.73437    141.594803
    4089           0     -1950.803955   -775.005493  -17426.83203    137.975739
    4090           0     -1950.803955   -775.005493  -17782.92968    134.048767
    4091           0     -1950.803955   -775.005493  -18139.02539    130.419739
    4092           0     -1950.803955   -775.005493  -18495.12304    126.565521
    4093           0     -1950.803955   -775.005493  -18851.22070    123.139839
    4094           0     -1950.803955   -775.005493  -19207.31835    119.618782
    4095           0     -1950.803955   -775.005493  -19563.41796    116.585983
    4096           0     -1950.803955   -775.005493  -19919.51562    113.607620
    4097           0     -1950.803955   -775.005493  -20275.61132    111.131874
    4098           0     -1950.803955   -775.005493  -20631.70898    108.848961
    4099           0     -1950.803955   -775.005493  -20987.80664    107.057098
    4100           0     -1950.803955   -775.005493  -21343.90429    105.568001
    4101           0     -1950.803955   -775.005493  -21700.00195    104.542419
    4102           0     -1950.803955   -775.005493  -22056.09765    103.892540
    4103           0     -1950.803955   -775.005493  -22412.19726    103.665176
    4104           0     -1950.803955   -775.005493  -22768.29296    103.843971
    4105           0     -1950.803955   -775.005493  -23124.39062    104.387688
    4106           0     -1950.803955   -775.005493  -23480.48828    105.320801
    4107           0     -1950.803955   -775.005493  -23836.58789    106.538017
    4108           0     -1950.803955   -775.005493  -24192.68554    108.077576
    4109           0     -1950.803955   -775.005493  -24548.78125    109.785698
    4110           0     -1950.803955   -775.005493  -24904.87890    111.699753
    4111           0     -1950.803955   -775.005493  -25260.97656    113.610977
    4112           0     -1950.803955   -775.005493  -25617.07226    115.569580
    4113           0     -1950.803955   -775.005493  -25973.17187    117.252472
    4114           0     -1950.803955   -775.005493  -26329.26953    118.775177
    4115           0     -1950.803955   -775.005493  -26685.36914    119.543762
    4116           0     -1950.803955   -775.005493  -27041.46484    119.673790
    4117           0     -1950.803955   -775.005493  -27397.56250    118.350166
    4118           0     -1950.803955   -775.005493  -27753.66015    113.322868
    4119           0     -1950.803955   -775.005493  -28109.75781    109.942001
    4120           0     -1950.803955   -775.005493  -28465.85351     88.618401
    4121           0     -1950.803955   -775.005493  -28821.95117     71.313622
    4122           0     -1902.441040   -887.123535  -14578.05078    169.094452
    4123           0     -1902.441040   -887.123535  -14934.14843    162.627350
    4124           0     -1902.441040   -887.123535  -15290.24609    136.412323
    4125           0     -1902.441040   -887.123535  -15646.34277    124.152992
    4126           0     -1902.441040   -887.123535  -16002.44140    121.551231
    4127           0     -1902.441040   -887.123535  -16358.53808    119.909119
    4128           0     -1902.441040   -887.123535  -16714.63671    121.208641
    4129           0     -1902.441040   -887.123535  -17070.73437    121.439537
    4130           0     -1902.441040   -887.123535  -17426.83007    122.808937
    4131           0     -1902.441040   -887.123535  -17782.92773    123.263474
    4132           0     -1902.441040   -887.123535  -18139.02539    124.092842
    4133           0     -1902.441040   -887.123535  -18495.12304    124.373978
    4134           0     -1902.441040   -887.123535  -18851.22070    124.705505
    4135           0     -1902.441040   -887.123535  -19207.31835    124.763947
    4136           0     -1902.441040   -887.123535  -19563.41796    124.762299
    4137           0     -1902.441040   -887.123535  -19919.51367    124.659088
    4138           0     -1902.441040   -887.123535  -20275.61132    124.478760
    4139           0     -1902.441040   -887.123535  -20631.70898    124.291321
    4140           0     -1902.441040   -887.123535  -20987.80664    124.037102
    4141           0     -1902.441040   -887.123535  -21343.90234    123.817207
    4142           0     -1902.441040   -887.123535  -21700.00000    123.532921
    4143           0     -1902.441040   -887.123535  -22056.09765    123.287010
    4144           0     -1902.441040   -887.123535  -22412.19726    122.951492
    4145           0     -1902.441040   -887.123535  -22768.29492    122.628105
    4146           0     -1902.441040   -887.123535  -23124.39062    122.149673
    4147           0     -1902.441040   -887.123535  -23480.48828    121.624886
    4148           0     -1902.441040   -887.123535  -23836.58789    120.830254
    4149           0     -1902.441040   -887.123535  -24192.68554    119.885338
    4150           0     -1902.441040   -887.123535  -24548.78125    118.501686
    4151           0     -1902.441040   -887.123535  -24904.87890    116.786415
    4152           0     -1902.441040   -887.123535  -25260.97460    114.413971
    4153           0     -1902.441040   -887.123535  -25617.07226    111.381149
    4154           0     -1902.441040   -887.123535  -25973.17187    107.448387
    4155           0     -1902.441040   -887.123535  -26329.26953    102.229492
    4156           0     -1902.441040   -887.123596  -26685.36914     95.915123
    4157           0     -1902.441040   -887.123596  -27041.46484     87.185333
    4158           0     -1902.441040   -887.123596  -27397.56250     77.559265
    4159           0     -1902.441040   -887.123596  -27753.66015     65.366653
    4160           0     -1902.441040   -887.123596  -28109.75781     61.119213
    4161           0     -1902.441040   -887.123596  -28465.85351     76.239723
    4162           0     -1902.441040   -887.123596  -28821.94921     86.132927
    4163           0     -1847.640625   -996.239746  -14578.05078    177.525742
    4164           0     -1847.640625   -996.239746  -14934.14843    174.872833
    4165           0     -1847.640625   -996.239746  -15290.24609    143.169144
    4166           0     -1847.640625   -996.239746  -15646.34277    122.972946
    4167           0     -1847.640625   -996.239746  -16002.44140    106.396568
    4168           0     -1847.640625   -996.239746  -16358.53808     99.184723
    4169           0     -1847.640625   -996.239746  -16714.63671     95.897972
    4170           0     -1847.640625   -996.239746  -17070.73437     96.274254
    4171           0     -1847.640625   -996.239746  -17426.83203     98.132309
    4172           0     -1847.640625   -996.239746  -17782.92968    101.109474
    4173           0     -1847.640625   -996.239746  -18139.02539    104.270790
    4174           0     -1847.640625   -996.239746  -18495.12304    107.574509
    4175           0     -1847.640625   -996.239746  -18851.22070    110.622337
    4176           0     -1847.640625   -996.239746  -19207.31835    113.459480
    4177           0     -1847.640625   -996.239746  -19563.41796    115.944504
    4178           0     -1847.640625   -996.239746  -19919.51562    118.094864
    4179           0     -1847.640625   -996.239746  -20275.61132    119.904350
    4180           0     -1847.640625   -996.239746  -20631.70898    121.335602
    4181           0     -1847.640625   -996.239746  -20987.80664    122.453568
    4182           0     -1847.640625   -996.239746  -21343.90234    123.169495
    4183           0     -1847.640625   -996.239746  -21700.00000    123.582214
    4184           0     -1847.640625   -996.239746  -22056.09765    123.560562
    4185           0     -1847.640625   -996.239746  -22412.19726    123.214371
    4186           0     -1847.640625   -996.239746  -22768.29296    122.377556
    4187           0     -1847.640625   -996.239746  -23124.39062    121.153969
    4188           0     -1847.640625   -996.239746  -23480.48828    119.349220
    4189           0     -1847.640625   -996.239746  -23836.58789    117.042725
    4190           0     -1847.640625   -996.239746  -24192.68359    114.021019
    4191           0     -1847.640625   -996.239746  -24548.78125    110.312027
    4192           0     -1847.640625   -996.239746  -24904.87890    105.699402
    4193           0     -1847.640625   -996.239746  -25260.97656    100.119476
    4194           0     -1847.640625   -996.239746  -25617.07421     93.381340
    4195           0     -1847.640625   -996.239746  -25973.17187     85.290436
    4196           0     -1847.640625   -996.239746  -26329.26953     75.757645
    4197           0     -1847.640625   -996.239746  -26685.36914     64.603134
    4198           0     -1847.640625   -996.239746  -27041.46484     52.469093
    4199           0     -1847.640625   -996.239746  -27397.56250     41.701336
    4200           0     -1847.640625   -996.239746  -27753.66015     41.475643
    4201           0     -1847.640625   -996.239746  -28109.75781     57.356693
    4202           0     -1847.640625   -996.239746  -28465.85351     81.965675
    4203           0     -1847.640625   -996.239746  -28821.95312     87.048309
    4204           0     -1786.588501  -1101.985107  -14578.05078    175.398453
    4205           0     -1786.588501  -1101.985107  -14934.14843    177.682648
    4206           0     -1786.588501  -1101.985107  -15290.24609    150.874390
    4207           0     -1786.588501  -1101.985107  -15646.34277    132.399109
    4208           0     -1786.588501  -1101.985107  -16002.44140    109.979286
    4209           0     -1786.588501  -1101.985107  -16358.53808     93.936905
    4210           0     -1786.588501  -1101.985107  -16714.63671     82.672211
    4211           0     -1786.588501  -1101.985107  -17070.73437     76.367020
    4212           0     -1786.588501  -1101.985107  -17426.83203     74.493935
    4213           0     -1786.588501  -1101.985107  -17782.92968     75.456604
    4214           0     -1786.588501  -1101.985107  -18139.02539     78.575111
    4215           0     -1786.588501  -1101.985107  -18495.12304     82.525475
    4216           0     -1786.588501  -1101.985107  -18851.22070     86.987022
    4217           0     -1786.588501  -1101.985107  -19207.31835     91.334030
    4218           0     -1786.588501  -1101.985107  -19563.41796     95.474068
    4219           0     -1786.588501  -1101.985107  -19919.51562     99.173889
    4220           0     -1786.588501  -1101.985107  -20275.61132    102.392906
    4221           0     -1786.588501  -1101.985107  -20631.70898    105.076035
    4222           0     -1786.588501  -1101.985107  -20987.80664    107.170982
    4223           0     -1786.588501  -1101.985107  -21343.90429    108.699928
    4224           0     -1786.588501  -1101.985107  -21700.00195    109.585007
    4225           0     -1786.588501  -1101.985107  -22056.09765    109.875999
    4226           0     -1786.588501  -1101.985107  -22412.19726    109.471146
    4227           0     -1786.588501  -1101.985107  -22768.29296    108.419090
    4228           0     -1786.588501  -1101.985107  -23124.39062    106.600662
    4229           0     -1786.588501  -1101.985107  -23480.48828    104.042053
    4230           0     -1786.588501  -1101.985107  -23836.58789    100.615211
    4231           0     -1786.588501  -1101.985107  -24192.68554     96.303925
    4232           0     -1786.588501  -1101.985107  -24548.78125     90.982216
    4233           0     -1786.588501  -1101.985107  -24904.87890     84.571144
    4234           0     -1786.588501  -1101.985107  -25260.97656     76.967400
    4235           0     -1786.588501  -1101.985107  -25617.07226     68.023239
    4236           0     -1786.588501  -1101.985107  -25973.17187     57.739399
    4237           0     -1786.588501  -1101.985107  -26329.26953     46.086704
    4238           0     -1786.588501  -1101.985107  -26685.36914     33.917286
    4239           0     -1786.588501  -1101.985107  -27041.46484     24.683311
    4240           0     -1786.588501  -1101.985107  -27397.56250     27.461308
    4241           0     -1786.588501  -1101.985107  -27753.66015     44.602440
    4242           0     -1786.588501  -1101.985107  -28109.75781     61.186588
    4243           0     -1786.588501  -1101.985107  -28465.85351     78.310081
    4244           0     -1786.588501  -1101.985107  -28821.95117     78.464607
    4245           0     -1719.491211  -1204.001587  -14578.05078    167.245972
    4246           0     -1719.491211  -1204.001587  -14934.14843    172.136154
    4247           0     -1719.491211  -1204.001587  -15290.24609    150.645569
    4248           0     -1719.491211  -1204.001587  -15646.34277    137.291824
    4249           0     -1719.491211  -1204.001587  -16002.44140    117.625092
    4250           0     -1719.491211  -1204.001587  -16358.53808     99.584145
    4251           0     -1719.491211  -1204.001587  -16714.63671     83.394524
    4252           0     -1719.491211  -1204.001587  -17070.73437     70.436691
    4253           0     -1719.491211  -1204.001587  -17426.83007     61.259640
    4254           0     -1719.491211  -1204.001587  -17782.92773     56.105766
    4255           0     -1719.491211  -1204.001587  -18139.02539     54.755707
    4256           0     -1719.491211  -1204.001587  -18495.12304     56.346035
    4257           0     -1719.491211  -1204.001587  -18851.22070     59.750889
    4258           0     -1719.491211  -1204.001587  -19207.31835     64.081551
    4259           0     -1719.491211  -1204.001587  -19563.41796     68.631111
    4260           0     -1719.491211  -1204.001587  -19919.51367     73.032608
    4261           0     -1719.491211  -1204.001587  -20275.61132     77.009865
    4262           0     -1719.491211  -1204.001587  -20631.70898     80.429329
    4263           0     -1719.491211  -1204.001587  -20987.80664     83.200500
    4264           0     -1719.491211  -1204.001587  -21343.90234     85.255020
    4265           0     -1719.491211  -1204.001587  -21700.00000     86.572174
    4266           0     -1719.491211  -1204.001587  -22056.09765     87.094193
    4267           0     -1719.491211  -1204.001587  -22412.19726     86.819283
    4268           0     -1719.491211  -1204.001587  -22768.29492     85.687210
    4269           0     -1719.491211  -1204.001587  -23124.39062     83.688194
    4270           0     -1719.491211  -1204.001587  -23480.48828     80.761276
    4271           0     -1719.491211  -1204.001587  -23836.58789     76.870277
    4272           0     -1719.491211  -1204.001587  -24192.68554     71.962433
    4273           0     -1719.491211  -1204.001587  -24548.78125     65.961487
    4274           0     -1719.491211  -1204.001587  -24904.87890     58.839798
    4275           0     -1719.491211  -1204.001587  -25260.97460     50.484127
    4276           0     -1719.491211  -1204.001587  -25617.07226     40.942028
    4277           0     -1719.491211  -1204.001587  -25973.17187     30.214457
    4278           0     -1719.491211  -1204.001587  -26329.26953     18.982880
    4279           0     -1719.491211  -1204.001587  -26685.36914     11.570772
    4280           0     -1719.491211  -1204.001587  -27041.46484     18.709602
    4281           0     -1719.491211  -1204.001587  -27397.56250     33.177750
    4282           0     -1719.491211  -1204.001587  -27753.66015     48.165585
    4283           0     -1719.491211  -1204.001587  -28109.75781     57.868015
    4284           0     -1719.491211  -1204.001587  -28465.85351     68.319031
    4285           0     -1719.491211  -1204.001587  -28821.94921     67.024750
    4286           0     -1646.575562  -1301.944092  -14578.05078    155.998611
    4287           0     -1646.575562  -1301.944092  -14934.14843    161.641068
    4288           0     -1646.575562  -1301.944092  -15290.24609    144.190842
    4289           0     -1646.575562  -1301.944092  -15646.34277    134.871170
    4290           0     -1646.575562  -1301.944092  -16002.44140    120.294464
    4291           0     -1646.575562  -1301.944092  -16358.53808    105.309738
    4292           0     -1646.575562  -1301.944092  -16714.63671     89.794258
    4293           0     -1646.575562  -1301.944092  -17070.73437     75.195099
    4294           0     -1646.575562  -1301.944092  -17426.83203     62.164925
    4295           0     -1646.575562  -1301.944092  -17782.92968     51.191120
    4296           0     -1646.575562  -1301.944092  -18139.02539     42.979866
    4297           0     -1646.575562  -1301.944092  -18495.12304     38.023575
    4298           0     -1646.575562  -1301.944092  -18851.22070     36.509171
    4299           0     -1646.575562  -1301.944092  -19207.31835     37.818642
    4300           0     -1646.575562  -1301.944092  -19563.41796     40.872372
    4301           0     -1646.575562  -1301.944092  -19919.51562     44.688610
    4302           0     -1646.575562  -1301.944092  -20275.61132     48.592018
    4303           0     -1646.575562  -1301.944092  -20631.70898     52.189720
    4304           0     -1646.575562  -1301.944092  -20987.80664     55.245762
    4305           0     -1646.575562  -1301.944092  -21343.90234     57.628334
    4306           0     -1646.575562  -1301.944092  -21700.00000     59.252178
    4307           0     -1646.575562  -1301.944092  -22056.09765     60.063747
    4308           0     -1646.575562  -1301.944092  -22412.19726     60.025497
    4309           0     -1646.575562  -1301.944092  -22768.29296     59.102314
    4310           0     -1646.575562  -1301.944092  -23124.39062     57.273552
    4311           0     -1646.575562  -1301.944092  -23480.48828     54.502831
    4312           0     -1646.575562  -1301.944092  -23836.58789     50.778316
    4313           0     -1646.575562  -1301.944092  -24192.68359     46.059765
    4314           0     -1646.575562  -1301.944092  -24548.78125     40.345253
    4315           0     -1646.575562  -1301.944092  -24904.87890     33.606960
    4316           0     -1646.575562  -1301.944092  -25260.97656     25.873802
    4317           0     -1646.575562  -1301.944092  -25617.07421     17.222889
    4318           0     -1646.575562  -1301.944092  -25973.17187      8.165012
    4319           0     -1646.575562  -1301.944092  -26329.26953      5.913771
    4320           0     -1646.575562  -1301.944092  -26685.36914     15.765414
    4321           0     -1646.575562  -1301.944092  -27041.46484     26.786711
    4322           0     -1646.575562  -1301.944092  -27397.56250     37.088867
    4323           0     -1646.575562  -1301.944092  -27753.66015     45.428131
    4324           0     -1646.575562  -1301.944092  -28109.75781     50.018715
    4325           0     -1646.575562  -1301.944092  -28465.85351     56.576046
    4326           0     -1646.575562  -1301.944092  -28821.95312     55.118355
    4327           0     -1568.088623  -1395.481323  -14578.05078    143.219589
    4328           0     -1568.088623  -1395.481323  -14934.14843    148.912857
    4329           0     -1568.088623  -1395.481323  -15290.24609    134.263718
    4330           0     -1568.088623  -1395.481323  -15646.34277    127.521889
    4331           0     -1568.088623  -1395.481323  -16002.44140    117.092758
    4332           0     -1568.088623  -1395.481323  -16358.53808    106.309273
    4333           0     -1568.088623  -1395.481323  -16714.63671     94.209839
    4334           0     -1568.088623  -1395.481323  -17070.73437     81.767303
    4335           0     -1568.088623  -1395.481323  -17426.83203     69.566208
    4336           0     -1568.088623  -1395.481323  -17782.92968     57.929337
    4337           0     -1568.088623  -1395.481323  -18139.02539     47.253429
    4338           0     -1568.088623  -1395.481323  -18495.12304     37.818096
    4339           0     -1568.088623  -1395.481323  -18851.22070     30.038113
    4340           0     -1568.088623  -1395.481323  -19207.31835     24.452442
    4341           0     -1568.088623  -1395.481323  -19563.41796     21.610498
    4342           0     -1568.088623  -1395.481323  -19919.51562     21.532234
    4343           0     -1568.088623  -1395.481323  -20275.61132     23.361582
    4344           0     -1568.088623  -1395.481323  -20631.70898     26.029682
    4345           0     -1568.088623  -1395.481323  -20987.80664     28.773985
    4346           0     -1568.088623  -1395.481323  -21343.90429     31.180025
    4347           0     -1568.088623  -1395.481323  -21700.00195     33.018566
    4348           0     -1568.088623  -1395.481323  -22056.09765     34.178310
    4349           0     -1568.088623  -1395.481323  -22412.19726     34.587154
    4350           0     -1568.088623  -1395.481323  -22768.29296     34.222233
    4351           0     -1568.088623  -1395.481323  -23124.39062     33.060749
    4352           0     -1568.088623  -1395.481323  -23480.48828     31.122232
    4353           0     -1568.088623  -1395.481323  -23836.58789     28.419672
    4354           0     -1568.088623  -1395.481323  -24192.68554     25.036398
    4355           0     -1568.088623  -1395.481323  -24548.78125     21.084494
    4356           0     -1568.088623  -1395.481323  -24904.87890     16.902411
    4357           0     -1568.088623  -1395.481323  -25260.97656     13.205261
    4358           0     -1568.088623  -1395.481323  -25617.07226     11.737453
    4359           0     -1568.088623  -1395.481323  -25973.17187     14.006735
    4360           0     -1568.088623  -1395.481323  -26329.26953     18.996326
    4361           0     -1568.088623  -1395.481323  -26685.36914     25.020933
    4362           0     -1568.088623  -1395.481323  -27041.46484     30.848614
    4363           0     -1568.088623  -1395.481323  -27397.56250     35.570770
    4364           0     -1568.088623  -1395.481323  -27753.66015     39.010574
    4365           0     -1568.088623  -1395.481323  -28109.75781     40.980721
    4366           0     -1568.088623  -1395.481323  -28465.85351     45.322578
    4367           0     -1568.088623  -1395.481323  -28821.95117     44.226261
    4368           0     -1484.295532  -1484.296631  -14578.05078    130.056351
    4369           0     -1484.295532  -1484.296631  -14934.14843    135.588684
    4370           0     -1484.295532  -1484.296631  -15290.24609    123.110107
    4371           0     -1484.295532  -1484.296631  -15646.34277    117.871727
    4372           0     -1484.295532  -1484.296631  -16002.44140    110.258438
    4373           0     -1484.295532  -1484.296631  -16358.53808    102.799507
    4374           0     -1484.295532  -1484.296631  -16714.63671     94.408272
    4375           0     -1484.295532  -1484.296631  -17070.73437     85.320076
    4376           0     -1484.295532  -1484.296631  -17426.83007     75.979546
    4377           0     -1484.295532  -1484.296631  -17782.92773     66.613625
    4378           0     -1484.295532  -1484.296631  -18139.02539     57.555519
    4379           0     -1484.295532  -1484.296631  -18495.12304     48.989418
    4380           0     -1484.295532  -1484.296631  -18851.22070     41.127335
    4381           0     -1484.295532  -1484.296631  -19207.31835     34.147503
    4382           0     -1484.295532  -1484.296631  -19563.41796     28.251656
    4383           0     -1484.295532  -1484.296631  -19919.51367     23.664400
    4384           0     -1484.295532  -1484.296631  -20275.61132     20.586382
    4385           0     -1484.295532  -1484.296631  -20631.70898     19.063778
    4386           0     -1484.295532  -1484.296631  -20987.80664     18.854103
    4387           0     -1484.295532  -1484.296631  -21343.90234     19.477818
    4388           0     -1484.295532  -1484.296631  -21700.00000     20.461706
    4389           0     -1484.295532  -1484.296631  -22056.09765     21.445498
    4390           0     -1484.295532  -1484.296631  -22412.19726     22.232775
    4391           0     -1484.295532  -1484.296631  -22768.29492     22.711102
    4392           0     -1484.295532  -1484.296631  -23124.39062     22.870922
    4393           0     -1484.295532  -1484.296631  -23480.48828     22.736660
    4394           0     -1484.295532  -1484.296631  -23836.58789     22.413851
    4395           0     -1484.295532  -1484.296631  -24192.68554     22.033966
    4396           0     -1484.295532  -1484.296631  -24548.78125     21.794685
    4397           0     -1484.295532  -1484.296631  -24904.87890     21.891085
    4398           0     -1484.295532  -1484.296631  -25260.97460     22.489809
    4399           0     -1484.295532  -1484.296631  -25617.07226     23.643328
    4400           0     -1484.295532  -1484.296631  -25973.17187     25.261803
    4401           0     -1484.295532  -1484.296631  -26329.26953     27.095011
    4402           0     -1484.295532  -1484.296631  -26685.36914     28.887255
    4403           0     -1484.295532  -1484.296631  -27041.46484     30.200399
    4404           0     -1484.295532  -1484.296631  -27397.56250     31.040039
    4405           0     -1484.295532  -1484.296631  -27753.66015     31.785276
    4406           0     -1484.295532  -1484.296631  -28109.75781     32.627186
    4407           0     -1484.295532  -1484.296631  -28465.85351     35.672897
    4408           0     -1484.295532  -1484.296631  -28821.94921     34.857853
    4409           0     -1395.480103  -1568.089600  -14578.05078    117.372490
    4410           0     -1395.480103  -1568.089600  -14934.14843    122.752846
    4411           0     -1395.480103  -1568.089600  -15290.24609    112.148727
    4412           0     -1395.480103  -1568.089600  -15646.34277    107.874870
    4413           0     -1395.480103  -1568.089600  -16002.44140    102.064140
    4414           0     -1395.480103  -1568.089600  -16358.53808     96.788193
    4415           0     -1395.480103  -1568.089600  -16714.63671     91.232887
    4416           0     -1395.480103  -1568.089600  -17070.73437     85.224129
    4417           0     -1395.480103  -1568.089600  -17426.83203     78.941193
    4418           0     -1395.480103  -1568.089600  -17782.92968     72.486458
    4419           0     -1395.480103  -1568.089600  -18139.02539     66.102638
    4420           0     -1395.480103  -1568.089600  -18495.12304     59.948936
    4421           0     -1395.480103  -1568.089600  -18851.22070     54.197784
    4422           0     -1395.480103  -1568.089600  -19207.31835     48.988800
    4423           0     -1395.480103  -1568.089600  -19563.41796     44.436035
    4424           0     -1395.480103  -1568.089600  -19919.51562     40.627754
    4425           0     -1395.480103  -1568.089600  -20275.61132     37.608406
    4426           0     -1395.480103  -1568.089600  -20631.70898     35.375393
    4427           0     -1395.480103  -1568.089600  -20987.80664     33.868835
    4428           0     -1395.480103  -1568.089600  -21343.90234     32.980183
    4429           0     -1395.480103  -1568.089600  -21700.00000     32.569809
    4430           0     -1395.480103  -1568.089600  -22056.09765     32.491524
    4431           0     -1395.480103  -1568.089600  -22412.19726     32.612511
    4432           0     -1395.480103  -1568.089600  -22768.29296     32.825848
    4433           0     -1395.480103  -1568.089600  -23124.39062     33.052914
    4434           0     -1395.480103  -1568.089600  -23480.48828     33.241543
    4435           0     -1395.480103  -1568.089600  -23836.58789     33.359570
    4436           0     -1395.480103  -1568.089600  -24192.68359     33.387569
    4437           0     -1395.480103  -1568.089600  -24548.78125     33.309425
    4438           0     -1395.480103  -1568.089600  -24904.87890     33.105904
    4439           0     -1395.480103  -1568.089600  -25260.97656     32.742977
    4440           0     -1395.480103  -1568.089600  -25617.07421     32.174446
    4441           0     -1395.480103  -1568.089600  -25973.17187     31.346142
    4442           0     -1395.480103  -1568.089600  -26329.26953     30.207191
    4443           0     -1395.480103  -1568.089600  -26685.36914     28.801340
    4444           0     -1395.480103  -1568.089600  -27041.46484     27.209650
    4445           0     -1395.480103  -1568.089600  -27397.56250     25.990938
    4446           0     -1395.480103  -1568.089600  -27753.66015     25.539394
    4447           0     -1395.480103  -1568.089600  -28109.75781     25.882984
    4448           0     -1395.480103  -1568.089600  -28465.85351     27.903240
    4449           0     -1395.480103  -1568.089600  -28821.95312     27.133997
    4450           0     -1301.942871  -1646.576660  -14578.05078    105.879921
    4451           0     -1301.942871  -1646.576660  -14934.14843    111.149529
    4452           0     -1301.942871  -1646.576660  -15290.24609    102.228271
    4453           0     -1301.942871  -1646.576660  -15646.34277     98.706902
    4454           0     -1301.942871  -1646.576660  -16002.44140     94.105820
    4455           0     -1301.942871  -1646.576660  -16358.53808     90.155518
    4456           0     -1301.942871  -1646.576660  -16714.63671     86.422897
    4457           0     -1301.942871  -1646.576660  -17070.73437     82.622299
    4458           0     -1301.942871  -1646.576660  -17426.83203     78.783981
    4459           0     -1301.942871  -1646.576660  -17782.92968     74.849777
    4460           0     -1301.942871  -1646.576660  -18139.02539     70.950508
    4461           0     -1301.942871  -1646.576660  -18495.12304     67.162338
    4462           0     -1301.942871  -1646.576660  -18851.22070     63.589424
    4463           0     -1301.942871  -1646.576660  -19207.31835     60.313450
    4464           0     -1301.942871  -1646.576660  -19563.41796     57.397690
    4465           0     -1301.942871  -1646.576660  -19919.51562     54.883152
    4466           0     -1301.942871  -1646.576660  -20275.61132     52.784061
    4467           0     -1301.942871  -1646.576660  -20631.70898     51.089512
    4468           0     -1301.942871  -1646.576660  -20987.80664     49.765839
    4469           0     -1301.942871  -1646.576660  -21343.90429     48.759331
    4470           0     -1301.942871  -1646.576660  -21700.00195     48.004444
    4471           0     -1301.942871  -1646.576660  -22056.09765     47.426517
    4472           0     -1301.942871  -1646.576660  -22412.19726     46.950424
    4473           0     -1301.942871  -1646.576660  -22768.29296     46.500725
    4474           0     -1301.942871  -1646.576660  -23124.39062     46.007465
    4475           0     -1301.942871  -1646.576660  -23480.48828     45.402924
    4476           0     -1301.942871  -1646.576660  -23836.58789     44.625145
    4477           0     -1301.942871  -1646.576660  -24192.68554     43.612656
    4478           0     -1301.942871  -1646.576660  -24548.78125     42.308159
    4479           0     -1301.942871  -1646.576660  -24904.87890     40.655643
    4480           0     -1301.942871  -1646.576660  -25260.97656     38.609257
    4481           0     -1301.942871  -1646.576660  -25617.07226     36.141216
    4482           0     -1301.942871  -1646.576660  -25973.17187     33.275219
    4483           0     -1301.942871  -1646.576660  -26329.26953     30.097658
    4484           0     -1301.942871  -1646.576660  -26685.36914     26.870409
    4485           0     -1301.942871  -1646.576660  -27041.46484     23.965401
    4486           0     -1301.942871  -1646.576660  -27397.56250     21.990866
    4487           0     -1301.942871  -1646.576660  -27753.66015     21.049755
    4488           0     -1301.942871  -1646.576660  -28109.75781     20.899105
    4489           0     -1301.942871  -1646.576660  -28465.85351     21.861441
    4490           0     -1301.942871  -1646.576660  -28821.95117     20.928432
    4491           0     -1204.000244  -1719.492188  -14578.05078     96.102226
    4492           0     -1204.000244  -1719.492188  -14934.14843    101.307594
    4493           0     -1204.000244  -1719.492188  -15290.24609     93.831390
    4494           0     -1204.000244  -1719.492188  -15646.34277     90.988228
    4495           0     -1204.000244  -1719.492188  -16002.44140     87.278419
    4496           0     -1204.000244  -1719.492188  -16358.53808     84.152061
    4497           0     -1204.000244  -1719.492188  -16714.63671     81.471573
    4498           0     -1204.000244  -1719.492188  -17070.73437     79.003036
    4499           0     -1204.000244  -1719.492188  -17426.83007     76.757111
    4500           0     -1204.000244  -1719.492188  -17782.92773     74.585297
    4501           0     -1204.000244  -1719.492188  -18139.02539     72.515976
    4502           0     -1204.000244  -1719.492188  -18495.12304     70.545029
    4503           0     -1204.000244  -1719.492188  -18851.22070     68.698463
    4504           0     -1204.000244  -1719.492188  -19207.31835     66.996758
    4505           0     -1204.000244  -1719.492188  -19563.41796     65.452576
    4506           0     -1204.000244  -1719.492188  -19919.51367     64.072098
    4507           0     -1204.000244  -1719.492188  -20275.61132     62.847599
    4508           0     -1204.000244  -1719.492188  -20631.70898     61.762562
    4509           0     -1204.000244  -1719.492188  -20987.80664     60.788654
    4510           0     -1204.000244  -1719.492188  -21343.90234     59.889702
    4511           0     -1204.000244  -1719.492188  -21700.00000     59.021515
    4512           0     -1204.000244  -1719.492188  -22056.09765     58.134911
    4513           0     -1204.000244  -1719.492188  -22412.19726     57.176098
    4514           0     -1204.000244  -1719.492188  -22768.29492     56.089157
    4515           0     -1204.000244  -1719.492188  -23124.39062     54.816299
    4516           0     -1204.000244  -1719.492188  -23480.48828     53.300179
    4517           0     -1204.000244  -1719.492188  -23836.58789     51.484531
    4518           0     -1204.000244  -1719.492188  -24192.68554     49.317673
    4519           0     -1204.000244  -1719.492188  -24548.78125     46.755531
    4520           0     -1204.000244  -1719.492188  -24904.87890     43.770027
    4521           0     -1204.000244  -1719.492188  -25260.97460     40.359348
    4522           0     -1204.000244  -1719.492188  -25617.07226     36.568272
    4523           0     -1204.000244  -1719.492188  -25973.17187     32.514271
    4524           0     -1204.000244  -1719.492188  -26329.26953     28.409679
    4525           0     -1204.000244  -1719.492188  -26685.36914     24.620241
    4526           0     -1204.000122  -1719.492188  -27041.46484     21.524454
    4527           0     -1204.000122  -1719.492188  -27397.56250     19.423180
    4528           0     -1204.000122  -1719.492188  -27753.66015     18.120300
    4529           0     -1204.000122  -1719.492188  -28109.75781     17.300350
    4530           0     -1204.000122  -1719.492188  -28465.85351     17.200993
    4531           0     -1204.000244  -1719.492188  -28821.94921     15.978268
    4532           0     -1101.983643  -1786.589478  -14578.05078     88.361839
    4533           0     -1101.983643  -1786.589478  -14934.14843     93.547729
    4534           0     -1101.983643  -1786.589478  -15290.24609     87.222008
    4535           0     -1101.983643  -1786.589478  -15646.34277     84.979340
    4536           0     -1101.983643  -1786.589478  -16002.44140     81.966827
    4537           0     -1101.983643  -1786.589478  -16358.53808     79.398857
    4538           0     -1101.983643  -1786.589478  -16714.63671     77.295959
    4539           0     -1101.983643  -1786.589478  -17070.73437     75.511208
    4540           0     -1101.983643  -1786.589478  -17426.83203     74.104546
    4541           0     -1101.983643  -1786.589478  -17782.92968     72.917694
    4542           0     -1101.983643  -1786.589478  -18139.02539     71.924797
    4543           0     -1101.983643  -1786.589478  -18495.12304     71.068024
    4544           0     -1101.983643  -1786.589478  -18851.22070     70.319656
    4545           0     -1101.983643  -1786.589478  -19207.31835     69.649719
    4546           0     -1101.983643  -1786.589478  -19563.41796     69.030006
    4547           0     -1101.983643  -1786.589478  -19919.51562     68.432892
    4548           0     -1101.983643  -1786.589478  -20275.61132     67.828453
    4549           0     -1101.983643  -1786.589478  -20631.70898     67.185478
    4550           0     -1101.983643  -1786.589478  -20987.80664     66.470505
    4551           0     -1101.983643  -1786.589478  -21343.90234     65.647728
    4552           0     -1101.983643  -1786.589478  -21700.00000     64.679703
    4553           0     -1101.983643  -1786.589478  -22056.09765     63.526951
    4554           0     -1101.983643  -1786.589478  -22412.19726     62.149185
    4555           0     -1101.983643  -1786.589478  -22768.29296     60.505440
    4556           0     -1101.983643  -1786.589478  -23124.39062     58.555656
    4557           0     -1101.983643  -1786.589478  -23480.48828     56.262333
    4558           0     -1101.983643  -1786.589478  -23836.58789     53.593441
    4559           0     -1101.983643  -1786.589478  -24192.68359     50.527412
    4560           0     -1101.983643  -1786.589478  -24548.78125     47.059013
    4561           0     -1101.983643  -1786.589478  -24904.87890     43.210632
    4562           0     -1101.983643  -1786.589478  -25260.97656     39.043095
    4563           0     -1101.983643  -1786.589478  -25617.07421     34.674988
    4564           0     -1101.983643  -1786.589478  -25973.17187     30.294945
    4565           0     -1101.983643  -1786.589478  -26329.26953     26.169100
    4566           0     -1101.983643  -1786.589478  -26685.36914     22.607044
    4567           0     -1101.983643  -1786.589478  -27041.46484     19.782997
    4568           0     -1101.983643  -1786.589478  -27397.56250     17.665068
    4569           0     -1101.983643  -1786.589478  -27753.66015     15.970045
    4570           0     -1101.983643  -1786.589478  -28109.75781     14.507121
    4571           0     -1101.983643  -1786.589478  -28465.85351     13.514338
    4572           0     -1101.983643  -1786.589478  -28821.95312     12.022203
    4573           0      -996.238403  -1847.641357  -14578.05078     82.766777
    4574           0      -996.238403  -1847.641357  -14934.14843     87.985817
    4575           0      -996.238403  -1847.641357  -15290.24609     82.479759
    4576           0      -996.238403  -1847.641357  -15646.34277     80.728004
    4577           0      -996.238403  -1847.641357  -16002.44140     78.231575
    4578           0      -996.238403  -1847.641357  -16358.53808     76.065735
    4579           0      -996.238403  -1847.641357  -16714.63671     74.269943
    4580           0      -996.238403  -1847.641357  -17070.73437     72.770134
    4581           0      -996.238403  -1847.641357  -17426.83203     71.672096
    4582           0      -996.238403  -1847.641357  -17782.92968     70.860115
    4583           0      -996.238403  -1847.641357  -18139.02539     70.296021
    4584           0      -996.238403  -1847.641357  -18495.12304     69.903618
    4585           0      -996.238403  -1847.641357  -18851.22070     69.629112
    4586           0      -996.238403  -1847.641357  -19207.31835     69.417198
    4587           0      -996.238403  -1847.641357  -19563.41796     69.214569
    4588           0      -996.238403  -1847.641357  -19919.51562     68.971085
    4589           0      -996.238403  -1847.641357  -20275.61132     68.637543
    4590           0      -996.238403  -1847.641357  -20631.70898     68.168053
    4591           0      -996.238403  -1847.641357  -20987.80664     67.518784
    4592           0      -996.238403  -1847.641357  -21343.90429     66.649071
    4593           0      -996.238403  -1847.641357  -21700.00195     65.521164
    4594           0      -996.238403  -1847.641357  -22056.09765     64.100967
    4595           0      -996.238403  -1847.641357  -22412.19726     62.358177
    4596           0      -996.238403  -1847.641357  -22768.29296     60.267334
    4597           0      -996.238403  -1847.641357  -23124.39062     57.808483
    4598           0      -996.238403  -1847.641357  -23480.48828     54.969936
    4599           0      -996.238403  -1847.641357  -23836.58789     51.750408
    4600           0      -996.238403  -1847.641357  -24192.68554     48.165730
    4601           0      -996.238403  -1847.641357  -24548.78125     44.253048
    4602           0      -996.238403  -1847.641357  -24904.87890     40.083450
    4603           0      -996.238403  -1847.641357  -25260.97656     35.765362
    4604           0      -996.238403  -1847.641357  -25617.07226     31.459015
    4605           0      -996.238403  -1847.641357  -25973.17187     27.364149
    4606           0      -996.238403  -1847.641357  -26329.26953     23.699249
    4607           0      -996.238403  -1847.641357  -26685.36914     20.607197
    4608           0      -996.238403  -1847.641357  -27041.46484     18.052755
    4609           0      -996.238403  -1847.641357  -27397.56250     15.870031
    4610           0      -996.238403  -1847.641357  -27753.66015     13.868565
    4611           0      -996.238403  -1847.641357  -28109.75781     12.002792
    4612           0      -996.238403  -1847.641357  -28465.85351     10.458400
    4613           0      -996.238403  -1847.641357  -28821.95117      8.902518
    4614           0      -887.122070  -1902.441650  -14578.05078     79.228531
    4615           0      -887.122070  -1902.441650  -14934.14843     84.526054
    4616           0      -887.122070  -1902.441650  -15290.24609     79.520927
    4617           0      -887.122070  -1902.441650  -15646.34277     78.126640
    4618           0      -887.122070  -1902.441650  -16002.44140     75.954628
    4619           0      -887.122070  -1902.441650  -16358.53808     74.058228
    4620           0      -887.122070  -1902.441650  -16714.63671     72.405273
    4621           0      -887.122070  -1902.441650  -17070.73437     70.968872
    4622           0      -887.122070  -1902.441650  -17426.83007     69.866844
    4623           0      -887.122070  -1902.441650  -17782.92773     69.038376
    4624           0      -887.122070  -1902.441650  -18139.02539     68.457939
    4625           0      -887.122070  -1902.441650  -18495.12304     68.054153
    4626           0      -887.122070  -1902.441650  -18851.22070     67.767944
    4627           0      -887.122070  -1902.441650  -19207.31835     67.538223
    4628           0      -887.122070  -1902.441650  -19563.41796     67.305573
    4629           0      -887.122070  -1902.441650  -19919.51367     67.012093
    4630           0      -887.122070  -1902.441650  -20275.61132     66.601204
    4631           0      -887.122070  -1902.441650  -20631.70898     66.019386
    4632           0      -887.122070  -1902.441650  -20987.80664     65.217186
    4633           0      -887.122070  -1902.441650  -21343.90234     64.150528
    4634           0      -887.122070  -1902.441650  -21700.00000     62.782146
    4635           0      -887.122070  -1902.441650  -22056.09765     61.082424
    4636           0      -887.122070  -1902.441650  -22412.19726     59.030609
    4637           0      -887.122070  -1902.441650  -22768.29492     56.615589
    4638           0      -887.122070  -1902.441650  -23124.39062     53.837154
    4639           0      -887.122070  -1902.441650  -23480.48828     50.707802
    4640           0      -887.122070  -1902.441650  -23836.58789     47.254715
    4641           0      -887.122070  -1902.441650  -24192.68554     43.524483
    4642           0      -887.122070  -1902.441650  -24548.78125     39.585415
    4643           0      -887.122070  -1902.441650  -24904.87890     35.535553
    4644           0      -887.122070  -1902.441650  -25260.97460     31.498821
    4645           0      -887.122070  -1902.441650  -25617.07226     27.628502
    4646           0      -887.122070  -1902.441650  -25973.17187     24.074167
    4647           0      -887.122070  -1902.441650  -26329.26953     20.945124
    4648           0      -887.122070  -1902.441650  -26685.36914     18.234564
    4649           0      -887.122070  -1902.441650  -27041.46484     15.823881
    4650           0      -887.122070  -1902.441650  -27397.56250     13.586579
    4651           0      -887.122070  -1902.441650  -27753.66015     11.453874
    4652           0      -887.122070  -1902.441650  -28109.75781      9.491396
    4653           0      -887.122070  -1902.441650  -28465.85351      7.844993
    4654           0      -887.122070  -1902.441650  -28821.94921      6.633545
    4655           0      -775.004028  -1950.804565  -14578.05078     77.483376
    4656           0      -775.004028  -1950.804565  -14934.14843     82.896141
    4657           0      -775.004028  -1950.804565  -15290.24609     78.110168
    4658           0      -775.004028  -1950.804565  -15646.34277     76.943077
    4659           0      -775.004028  -1950.804565  -16002.44140     74.908455
    4660           0      -775.004028  -1950.804565  -16358.53808     73.152046
    4661           0      -775.004028  -1950.804565  -16714.63671     71.520256
    4662           0      -775.004028  -1950.804565  -17070.73437     70.026787
    4663           0      -775.004028  -1950.804565  -17426.83203     68.763290
    4664           0      -775.004028  -1950.804565  -17782.92968     67.715530
    4665           0      -775.004028  -1950.804565  -18139.02539     66.876503
    4666           0      -775.004028  -1950.804565  -18495.12304     66.192879
    4667           0      -775.004028  -1950.804565  -18851.22070     65.609627
    4668           0      -775.004028  -1950.804565  -19207.31835     65.068581
    4669           0      -775.004028  -1950.804565  -19563.41796     64.513985
    4670           0      -775.004028  -1950.804565  -19919.51562     63.891647
    4671           0      -775.004028  -1950.804565  -20275.61132     63.149498
    4672           0      -775.004028  -1950.804565  -20631.70898     62.237885
    4673           0      -775.004028  -1950.804565  -20987.80664     61.111649
    4674           0      -775.004028  -1950.804565  -21343.90234     59.731148
    4675           0      -775.004028  -1950.804565  -21700.00000     58.064850
    4676           0      -775.004028  -1950.804565  -22056.09765     56.090221
    4677           0      -775.004028  -1950.804565  -22412.19726     53.795906
    4678           0      -775.004028  -1950.804565  -22768.29296     51.182381
    4679           0      -775.004028  -1950.804565  -23124.39062     48.263760
    4680           0      -775.004028  -1950.804565  -23480.48828     45.068451
    4681           0      -775.004028  -1950.804565  -23836.58789     41.640667
    4682           0      -775.004028  -1950.804565  -24192.68359     38.041710
    4683           0      -775.004028  -1950.804565  -24548.78125     34.350037
    4684           0      -775.004028  -1950.804565  -24904.87890     30.662451
    4685           0      -775.004028  -1950.804565  -25260.97656     27.085760
    4686           0      -775.004028  -1950.804565  -25617.07421     23.729284
    4687           0      -775.004028  -1950.804565  -25973.17187     20.668344
    4688           0      -775.004028  -1950.804565  -26329.26953     17.918011
    4689           0      -775.004028  -1950.804565  -26685.36914     15.412158
    4690           0      -775.004028  -1950.804565  -27041.46484     13.053022
    4691           0      -775.004028  -1950.804565  -27397.56250     10.808514
    4692           0      -775.004028  -1950.804565  -27753.66015      8.693492
    4693           0      -775.004028  -1950.804565  -28109.75781      6.897876
    4694           0      -775.004028  -1950.804565  -28465.85351      5.677375
    4695           0      -775.004028  -1950.804565  -28821.95312      5.359457
    4696           0      -660.263672  -1992.566650  -14578.05078     77.133492
    4697           0      -660.263672  -1992.566650  -14934.14843     82.685875
    4698           0      -660.263672  -1992.566650  -15290.24609     77.892914
    4699           0      -660.263672  -1992.566650  -15646.34277     76.844681
    4700           0      -660.263672  -1992.566650  -16002.44140     74.790009
    4701           0      -660.263672  -1992.566650  -16358.53808     73.059868
    4702           0      -660.263672  -1992.566650  -16714.63671     71.352531
    4703           0      -660.263672  -1992.566650  -17070.73437     69.735413
    4704           0      -660.263672  -1992.566650  -17426.83203     68.247414
    4705           0      -660.263672  -1992.566650  -17782.92968     66.908516
    4706           0      -660.263672  -1992.566650  -18139.02539     65.723557
    4707           0      -660.263672  -1992.566650  -18495.12304     64.665375
    4708           0      -660.263672  -1992.566650  -18851.22070     63.687092
    4709           0      -660.263672  -1992.566650  -19207.31835     62.736862
    4710           0      -660.263672  -1992.566650  -19563.41796     61.762249
    4711           0      -660.263672  -1992.566650  -19919.51562     60.715752
    4712           0      -660.263672  -1992.566650  -20275.61132     59.553989
    4713           0      -660.263672  -1992.566650  -20631.70898     58.238808
    4714           0      -660.263672  -1992.566650  -20987.80664     56.737251
    4715           0      -660.263672  -1992.566650  -21343.90429     55.022282
    4716           0      -660.263672  -1992.566650  -21700.00195     53.073818
    4717           0      -660.263672  -1992.566650  -22056.09765     50.879700
    4718           0      -660.263672  -1992.566650  -22412.19726     48.437145
    4719           0      -660.263672  -1992.566650  -22768.29296     45.753696
    4720           0      -660.263672  -1992.566650  -23124.39062     42.848709
    4721           0      -660.263672  -1992.566650  -23480.48828     39.753746
    4722           0      -660.263672  -1992.566650  -23836.58789     36.513428
    4723           0      -660.263672  -1992.566650  -24192.68554     33.184448
    4724           0      -660.263672  -1992.566650  -24548.78125     29.834417
    4725           0      -660.263672  -1992.566650  -24904.87890     26.537874
    4726           0      -660.263672  -1992.566650  -25260.97656     23.367937
    4727           0      -660.263672  -1992.566650  -25617.07226     20.383261
    4728           0      -660.263672  -1992.566650  -25973.17187     17.604874
    4729           0      -660.263672  -1992.566650  -26329.26953     15.006989
    4730           0      -660.263672  -1992.566650  -26685.36914     12.534503
    4731           0      -660.263672  -1992.566650  -27041.46484     10.135701
    4732           0      -660.263672  -1992.566650  -27397.56250      7.857018
    4733           0      -660.263672  -1992.566650  -27753.66015      5.767247
    4734           0      -660.263672  -1992.566650  -28109.75781      4.303847
    4735           0      -660.263672  -1992.566650  -28465.85351      4.158019
    4736           0      -660.263672  -1992.566650  -28821.95117      5.074802
    4737           0      -543.289124  -2027.586426  -14578.05078     77.699387
    4738           0      -543.289124  -2027.586426  -14934.14843     83.389931
    4739           0      -543.289124  -2027.586426  -15290.24609     78.444191
    4740           0      -543.289124  -2027.586426  -15646.34277     77.430229
    4741           0      -543.289124  -2027.586426  -16002.44140     75.250328
    4742           0      -543.289124  -2027.586426  -16358.53808     73.461914
    4743           0      -543.289124  -2027.586426  -16714.63671     71.615234
    4744           0      -543.289124  -2027.586426  -17070.73437     69.841980
    4745           0      -543.289124  -2027.586426  -17426.83007     68.123558
    4746           0      -543.289124  -2027.586426  -17782.92773     66.501091
    4747           0      -543.289124  -2027.586426  -18139.02539     64.983139
    4748           0      -543.289124  -2027.586426  -18495.12304     63.568901
    4749           0      -543.289124  -2027.586426  -18851.22070     62.226212
    4750           0      -543.289124  -2027.586426  -19207.31835     60.913136
    4751           0      -543.289124  -2027.586426  -19563.41796     59.581337
    4752           0      -543.289124  -2027.586426  -19919.51367     58.187271
    4753           0      -543.289124  -2027.586426  -20275.61132     56.694077
    4754           0      -543.289124  -2027.586426  -20631.70898     55.072968
    4755           0      -543.289124  -2027.586426  -20987.80664     53.302841
    4756           0      -543.289124  -2027.586426  -21343.90234     51.368927
    4757           0      -543.289124  -2027.586426  -21700.00000     49.262581
    4758           0      -543.289124  -2027.586426  -22056.09765     46.980389
    4759           0      -543.289124  -2027.586426  -22412.19726     44.524925
    4760           0      -543.289124  -2027.586426  -22768.29492     41.904514
    4761           0      -543.289124  -2027.586426  -23124.39062     39.134953
    4762           0      -543.289124  -2027.586426  -23480.48828     36.239067
    4763           0      -543.289124  -2027.586426  -23836.58789     33.248726
    4764           0      -543.289124  -2027.586426  -24192.68554     30.202753
    4765           0      -543.289124  -2027.586426  -24548.78125     27.147730
    4766           0      -543.289124  -2027.586426  -24904.87890     24.131300
    4767           0      -543.289124  -2027.586426  -25260.97460     21.197689
    4768           0      -543.289124  -2027.586426  -25617.07226     18.373039
    4769           0      -543.289124  -2027.586426  -25973.17187     15.658257
    4770           0      -543.289124  -2027.586426  -26329.26953     13.025036
    4771           0      -543.289124  -2027.586426  -26685.36914     10.444108
    4772           0      -543.289063  -2027.586426  -27041.46484      7.881583
    4773           0      -543.289063  -2027.586426  -27397.56250      5.403058
    4774           0      -543.289063  -2027.586426  -27753.66015      3.052419
    4775           0      -543.289063  -2027.586426  -28109.75781      1.909430
    4776           0      -543.289063  -2027.586426  -28465.85351      3.594198
    4777           0      -543.289124  -2027.586426  -28821.94921      5.391339
    4778           0      -424.476318  -2055.745605  -14578.05078     78.663582
    4779           0      -424.476318  -2055.745605  -14934.14843     84.474167
    4780           0      -424.476318  -2055.745605  -15290.24609     79.304176
    4781           0      -424.476318  -2055.745605  -15646.34277     78.273834
    4782           0      -424.476318  -2055.745605  -16002.44140     75.917740
    4783           0      -424.476318  -2055.745605  -16358.53808     74.027107
    4784           0      -424.476318  -2055.745605  -16714.63671     72.015083
    4785           0      -424.476318  -2055.745605  -17070.73437     70.083870
    4786           0      -424.476318  -2055.745605  -17426.83203     68.163696
    4787           0      -424.476318  -2055.745605  -17782.92968     66.309891
    4788           0      -424.476318  -2055.745605  -18139.02539     64.525894
    4789           0      -424.476318  -2055.745605  -18495.12304     62.832554
    4790           0      -424.476318  -2055.745605  -18851.22070     61.216026
    4791           0      -424.476318  -2055.745605  -19207.31835     59.652065
    4792           0      -424.476318  -2055.745605  -19563.41796     58.102070
    4793           0      -424.476318  -2055.745605  -19919.51562     56.527962
    4794           0      -424.476318  -2055.745605  -20275.61132     54.895321
    4795           0      -424.476318  -2055.745605  -20631.70898     53.177296
    4796           0      -424.476318  -2055.745605  -20987.80664     51.354347
    4797           0      -424.476318  -2055.745605  -21343.90234     49.413452
    4798           0      -424.476318  -2055.745605  -21700.00000     47.346893
    4799           0      -424.476318  -2055.745605  -22056.09765     45.151150
    4800           0      -424.476318  -2055.745605  -22412.19726     42.826416
    4801           0      -424.476318  -2055.745605  -22768.29296     40.376293
    4802           0      -424.476318  -2055.745605  -23124.39062     37.808506
    4803           0      -424.476318  -2055.745605  -23480.48828     35.134914
    4804           0      -424.476318  -2055.745605  -23836.58789     32.373478
    4805           0      -424.476318  -2055.745605  -24192.68359     29.547342
    4806           0      -424.476318  -2055.745605  -24548.78125     26.686312
    4807           0      -424.476318  -2055.745605  -24904.87890     23.821285
    4808           0      -424.476318  -2055.745605  -25260.97656     20.981300
    4809           0      -424.476318  -2055.745605  -25617.07421     18.181839
    4810           0      -424.476318  -2055.745605  -25973.17187     15.423215
    4811           0      -424.476318  -2055.745605  -26329.26953     12.689914
    4812           0      -424.476318  -2055.745605  -26685.36914      9.969302
    4813           0      -424.476318  -2055.745605  -27041.46484      7.238411
    4814           0      -424.476318  -2055.745605  -27397.56250      4.541136
    4815           0      -424.476318  -2055.745605  -27753.66015      1.775020
    4816           0      -424.476318  -2055.745605  -28109.75781      0.897540
    4817           0      -424.476318  -2055.745605  -28465.85351      3.908418
    4818           0      -424.476318  -2055.745605  -28821.95312      5.885197
    4819           0      -304.227173  -2076.948730  -14578.05078     79.533806
    4820           0      -304.227173  -2076.948730  -14934.14843     85.424957
    4821           0      -304.227173  -2076.948730  -15290.24609     80.036957
    4822           0      -304.227173  -2076.948730  -15646.34277     78.968468
    4823           0      -304.227173  -2076.948730  -16002.44140     76.439392
    4824           0      -304.227173  -2076.948730  -16358.53808     74.442474
    4825           0      -304.227173  -2076.948730  -16714.63671     72.278168
    4826           0      -304.227173  -2076.948730  -17070.73437     70.214531
    4827           0      -304.227173  -2076.948730  -17426.83203     68.143166
    4828           0      -304.227173  -2076.948730  -17782.92968     66.130379
    4829           0      -304.227173  -2076.948730  -18139.02539     64.169197
    4830           0      -304.227173  -2076.948730  -18495.12304     62.293396
    4831           0      -304.227173  -2076.948730  -18851.22070     60.506180
    4832           0      -304.227173  -2076.948730  -19207.31835     58.806080
    4833           0      -304.227173  -2076.948730  -19563.41796     57.172474
    4834           0      -304.227173  -2076.948730  -19919.51562     55.577450
    4835           0      -304.227173  -2076.948730  -20275.61132     53.987919
    4836           0      -304.227173  -2076.948730  -20631.70898     52.370770
    4837           0      -304.227173  -2076.948730  -20987.80664     50.695446
    4838           0      -304.227173  -2076.948730  -21343.90429     48.935513
    4839           0      -304.227173  -2076.948730  -21700.00195     47.070015
    4840           0      -304.227173  -2076.948730  -22056.09765     45.083698
    4841           0      -304.227173  -2076.948730  -22412.19726     42.967609
    4842           0      -304.227173  -2076.948730  -22768.29296     40.718758
    4843           0      -304.227173  -2076.948730  -23124.39062     38.340496
    4844           0      -304.227173  -2076.948730  -23480.48828     35.841766
    4845           0      -304.227173  -2076.948730  -23836.58789     33.237511
    4846           0      -304.227173  -2076.948730  -24192.68554     30.547150
    4847           0      -304.227173  -2076.948730  -24548.78125     27.794249
    4848           0      -304.227173  -2076.948730  -24904.87890     25.002563
    4849           0      -304.227173  -2076.948730  -25260.97656     22.192709
    4850           0      -304.227173  -2076.948730  -25617.07226     19.377645
    4851           0      -304.227173  -2076.948730  -25973.17187     16.560003
    4852           0      -304.227173  -2076.948730  -26329.26953     13.741986
    4853           0      -304.227173  -2076.948730  -26685.36914     10.926864
    4854           0      -304.227173  -2076.948730  -27041.46484      8.135086
    4855           0      -304.227173  -2076.948730  -27397.56250      5.455213
    4856           0      -304.227173  -2076.948730  -27753.66015      3.096579
    4857           0      -304.227173  -2076.948730  -28109.75781      2.444248
    4858           0      -304.227173  -2076.948730  -28465.85351      4.607578
    4859           0      -304.227173  -2076.948730  -28821.95117      6.379660
    4860           0      -182.948608  -2091.124023  -14578.05078     79.885963
    4861           0      -182.948593  -2091.124023  -14934.14843     85.805740
    4862           0      -182.948593  -2091.124023  -15290.24609     80.266441
    4863           0      -182.948593  -2091.124023  -15646.34277     79.167091
    4864           0      -182.948593  -2091.124023  -16002.44140     76.511879
    4865           0      -182.948593  -2091.124023  -16358.53808     74.439903
    4866           0      -182.948578  -2091.124023  -16714.63671     72.169632
    4867           0      -182.948578  -2091.124023  -17070.73437     70.021973
    4868           0      -182.948578  -2091.124023  -17426.83007     67.862328
    4869           0      -182.948578  -2091.124023  -17782.92773     65.767075
    4870           0      -182.948578  -2091.124023  -18139.02539     63.717487
    4871           0      -182.948563  -2091.124023  -18495.12304     61.753021
    4872           0      -182.948563  -2091.124023  -18851.22070     59.887596
    4873           0      -182.948563  -2091.124023  -19207.31835     58.141293
    4874           0      -182.948563  -2091.124023  -19563.41796     56.513302
    4875           0      -182.948563  -2091.124023  -19919.51367     54.988823
    4876           0      -182.948547  -2091.124023  -20275.61132     53.535500
    4877           0      -182.948547  -2091.124023  -20631.70898     52.110256
    4878           0      -182.948532  -2091.124023  -20987.80664     50.664375
    4879           0      -182.948532  -2091.124023  -21343.90234     49.150387
    4880           0      -182.948532  -2091.124023  -21700.00000     47.527035
    4881           0      -182.948532  -2091.124023  -22056.09765     45.763237
    4882           0      -182.948532  -2091.124023  -22412.19726     43.839993
    4883           0      -182.948532  -2091.124023  -22768.29492     41.750980
    4884           0      -182.948532  -2091.124023  -23124.39062     39.501579
    4885           0      -182.948532  -2091.124023  -23480.48828     37.107079
    4886           0      -182.948517  -2091.124023  -23836.58789     34.589127
    4887           0      -182.948517  -2091.124023  -24192.68554     31.972418
    4888           0      -182.948517  -2091.124023  -24548.78125     29.279909
    4889           0      -182.948502  -2091.124023  -24904.87890     26.530764
    4890           0      -182.948502  -2091.124023  -25260.97460     23.736193
    4891           0      -182.948502  -2091.124023  -25617.07226     20.905310
    4892           0      -182.948502  -2091.124023  -25973.17187     18.040232
    4893           0      -182.948486  -2091.124023  -26329.26953     15.158912
    4894           0      -182.948486  -2091.124023  -26685.36914     12.277579
    4895           0      -182.948486  -2091.124023  -27041.46484      9.457044
    4896           0      -182.948486  -2091.124023  -27397.56250      6.814484
    4897           0      -182.948486  -2091.124023  -27753.66015      4.654769
    4898           0      -182.948486  -2091.124023  -28109.75781      3.867533
    4899           0      -182.948471  -2091.124023  -28465.85351      5.375156
    4900           0      -182.948547  -2091.124023  -28821.94921      6.872200
    4901           0       -61.051060  -2098.223633  -14578.05078     79.416603
    4902           0       -61.051056  -2098.223633  -14934.14843     85.298676
    4903           0       -61.051048  -2098.223633  -15290.24609     79.725601
    4904           0       -61.051048  -2098.223633  -15646.34277     78.618996
    4905           0       -61.051048  -2098.223633  -16002.44140     75.918739
    4906           0       -61.051041  -2098.223633  -16358.53808     73.825829
    4907           0       -61.051037  -2098.223633  -16714.63671     71.520699
    4908           0       -61.051037  -2098.223633  -17070.73437     69.351814
    4909           0       -61.051033  -2098.223633  -17426.83203     67.172737
    4910           0       -61.051025  -2098.223633  -17782.92968     65.065651
    4911           0       -61.051025  -2098.223633  -18139.02539     63.005024
    4912           0       -61.051018  -2098.223633  -18495.12304     61.031155
    4913           0       -61.051014  -2098.223633  -18851.22070     59.162708
    4914           0       -61.051014  -2098.223633  -19207.31835     57.431835
    4915           0       -61.051014  -2098.223633  -19563.41796     55.850742
    4916           0       -61.051010  -2098.223633  -19919.51562     54.413136
    4917           0       -61.051006  -2098.223633  -20275.61132     53.086960
    4918           0       -61.051006  -2098.223633  -20631.70898     51.821152
    4919           0       -61.051003  -2098.223633  -20987.80664     50.553356
    4920           0       -61.050995  -2098.223633  -21343.90234     49.220383
    4921           0       -61.050995  -2098.223633  -21700.00000     47.766655
    4922           0       -61.050995  -2098.223633  -22056.09765     46.150558
    4923           0       -61.050987  -2098.223633  -22412.19726     44.347595
    4924           0       -61.050983  -2098.223633  -22768.29296     42.351341
    4925           0       -61.050983  -2098.223633  -23124.39062     40.171467
    4926           0       -61.050980  -2098.223633  -23480.48828     37.830730
    4927           0       -61.050972  -2098.223633  -23836.58789     35.358643
    4928           0       -61.050972  -2098.223633  -24192.68359     32.785900
    4929           0       -61.050972  -2098.223633  -24548.78125     30.136528
    4930           0       -61.050964  -2098.223633  -24904.87890     27.426298
    4931           0       -61.050961  -2098.223633  -25260.97656     24.659088
    4932           0       -61.050961  -2098.223633  -25617.07421     21.839905
    4933           0       -61.050957  -2098.223633  -25973.17187     18.970356
    4934           0       -61.050949  -2098.223633  -26329.26953     16.078426
    4935           0       -61.050949  -2098.223633  -26685.36914     13.190486
    4936           0       -61.050941  -2098.223633  -27041.46484     10.391009
    4937           0       -61.050938  -2098.223633  -27397.56250      7.813370
    4938           0       -61.050938  -2098.223633  -27753.66015      5.780849
    4939           0       -61.050938  -2098.223633  -28109.75781      4.969385
    4940           0       -61.050934  -2098.223633  -28465.85351      6.126974
    4941           0       -61.050995  -2098.223633  -28821.95312      7.414412
    4942           0        61.053070  -2098.223633  -14578.05078     77.965797
    4943           0        61.053070  -2098.223633  -14934.14843     83.737335
    4944           0        61.053070  -2098.223633  -15290.24609     78.272461
    4945           0        61.053070  -2098.223633  -15646.34277     77.192276
    4946           0        61.053070  -2098.223633  -16002.44140     74.544777
    4947           0        61.053070  -2098.223633  -16358.53808     72.497307
    4948           0        61.053070  -2098.223633  -16714.63671     70.240250
    4949           0        61.053070  -2098.223633  -17070.73437     68.120003
    4950           0        61.053070  -2098.223633  -17426.83203     65.991104
    4951           0        61.053070  -2098.223633  -17782.92968     63.936119
    4952           0        61.053074  -2098.223633  -18139.02539     61.929729
    4953           0        61.053078  -2098.223633  -18495.12304     60.011944
    4954           0        61.053078  -2098.223633  -18851.22070     58.200642
    4955           0        61.053078  -2098.223633  -19207.31835     56.526955
    4956           0        61.053078  -2098.223633  -19563.41796     55.002087
    4957           0        61.053078  -2098.223633  -19919.51562     53.618858
    4958           0        61.053078  -2098.223633  -20275.61132     52.344536
    4959           0        61.053078  -2098.223633  -20631.70898     51.127441
    4960           0        61.053078  -2098.223633  -20987.80664     49.904865
    4961           0        61.053078  -2098.223633  -21343.90429     48.613403
    4962           0        61.053078  -2098.223633  -21700.00195     47.197517
    4963           0        61.053078  -2098.223633  -22056.09765     45.615803
    4964           0        61.053078  -2098.223633  -22412.19726     43.844269
    4965           0        61.053078  -2098.223633  -22768.29296     41.877251
    4966           0        61.053078  -2098.223633  -23124.39062     39.725601
    4967           0        61.053078  -2098.223633  -23480.48828     37.413540
    4968           0        61.053078  -2098.223633  -23836.58789     34.972454
    4969           0        61.053078  -2098.223633  -24192.68554     32.435005
    4970           0        61.053078  -2098.223633  -24548.78125     29.827049
    4971           0        61.053078  -2098.223633  -24904.87890     27.165508
    4972           0        61.053078  -2098.223633  -25260.97656     24.454748
    4973           0        61.053082  -2098.223633  -25617.07226     21.699629
    4974           0        61.053082  -2098.223633  -25973.17187     18.903013
    4975           0        61.053082  -2098.223633  -26329.26953     16.095530
    4976           0        61.053082  -2098.223633  -26685.36914     13.311960
    4977           0        61.053082  -2098.223633  -27041.46484     10.647292
    4978           0        61.053082  -2098.223633  -27397.56250      8.258074
    4979           0        61.053082  -2098.223633  -27753.66015      6.465552
    4980           0        61.053082  -2098.223633  -28109.75781      5.825805
    4981           0        61.053082  -2098.223633  -28465.85351      6.875475
    4982           0        61.053078  -2098.223633  -28821.95117      8.049673
    4983           0       182.950684  -2091.123779  -14578.05078     75.534225
    4984           0       182.950684  -2091.123779  -14934.14843     81.125725
    4985           0       182.950684  -2091.123779  -15290.24609     75.908195
    4986           0       182.950684  -2091.123779  -15646.34277     74.889046
    4987           0       182.950684  -2091.123779  -16002.44140     72.390755
    4988           0       182.950684  -2091.123779  -16358.53808     70.454659
    4989           0       182.950668  -2091.123779  -16714.63671     68.327110
    4990           0       182.950653  -2091.123779  -17070.73437     66.323822
    4991           0       182.950653  -2091.123779  -17426.83007     64.312340
    4992           0       182.950653  -2091.123779  -17782.92773     62.370266
    4993           0       182.950668  -2091.123779  -18139.02539     60.478775
    4994           0       182.950668  -2091.123779  -18495.12304     58.676212
    4995           0       182.950668  -2091.123779  -18851.22070     56.973965
    4996           0       182.950668  -2091.123779  -19207.31835     55.389435
    4997           0       182.950668  -2091.123779  -19563.41796     53.919323
    4998           0       182.950668  -2091.123779  -19919.51367     52.547050
    4999           0       182.950668  -2091.123779  -20275.61132     51.238949
    5000           0       182.950668  -2091.123779  -20631.70898     49.951183
    5001           0       182.950668  -2091.123779  -20987.80664     48.634533
    5002           0       182.950668  -2091.123779  -21343.90234     47.241444
    5003           0       182.950668  -2091.123779  -21700.00000     45.730854
    5004           0       182.950653  -2091.123779  -22056.09765     44.072334
    5005           0       182.950653  -2091.123779  -22412.19726     42.247993
    5006           0       182.950653  -2091.123779  -22768.29492     40.253418
    5007           0       182.950653  -2091.123779  -23124.39062     38.096725
    5008           0       182.950653  -2091.123779  -23480.48828     35.796867
    5009           0       182.950653  -2091.123779  -23836.58789     33.380230
    5010           0       182.950653  -2091.123779  -24192.68554     30.876802
    5011           0       182.950653  -2091.123779  -24548.78125     28.314939
    5012           0       182.950653  -2091.123779  -24904.87890     25.717903
    5013           0       182.950653  -2091.123779  -25260.97460     23.099758
    5014           0       182.950668  -2091.123779  -25617.07226     20.470821
    5015           0       182.950668  -2091.123779  -25973.17187     17.837961
    5016           0       182.950668  -2091.123779  -26329.26953     15.228106
    5017           0       182.950653  -2091.123779  -26685.36914     12.683782
    5018           0       182.950653  -2091.123779  -27041.46484     10.302046
    5019           0       182.950653  -2091.123779  -27397.56250      8.270596
    5020           0       182.950653  -2091.123779  -27753.66015      6.884742
    5021           0       182.950653  -2091.123779  -28109.75781      6.574265
    5022           0       182.950653  -2091.123779  -28465.85351      7.657375
    5023           0       182.950668  -2091.123779  -28821.94921      8.776746
    5024           0       304.229187  -2076.948242  -14578.05078     72.291138
    5025           0       304.229187  -2076.948242  -14934.14843     77.632462
    5026           0       304.229187  -2076.948242  -15290.24609     72.780762
    5027           0       304.229187  -2076.948242  -15646.34277     71.843552
    5028           0       304.229187  -2076.948242  -16002.44140     69.574493
    5029           0       304.229187  -2076.948242  -16358.53808     67.801140
    5030           0       304.229187  -2076.948242  -16714.63671     65.871201
    5031           0       304.229187  -2076.948242  -17070.73437     64.043266
    5032           0       304.229187  -2076.948242  -17426.83203     62.212246
    5033           0       304.229187  -2076.948242  -17782.92968     60.445099
    5034           0       304.229187  -2076.948242  -18139.02539     58.733337
    5035           0       304.229187  -2076.948242  -18495.12304     57.107944
    5036           0       304.229187  -2076.948242  -18851.22070     55.568195
    5037           0       304.229187  -2076.948242  -19207.31835     54.109413
    5038           0       304.229187  -2076.948242  -19563.41796     52.708687
    5039           0       304.229187  -2076.948242  -19919.51562     51.337273
    5040           0       304.229187  -2076.948242  -20275.61132     49.962078
    5041           0       304.229187  -2076.948242  -20631.70898     48.550667
    5042           0       304.229187  -2076.948242  -20987.80664     47.073341
    5043           0       304.229187  -2076.948242  -21343.90234     45.504627
    5044           0       304.229156  -2076.948242  -21700.00000     43.824490
    5045           0       304.229156  -2076.948242  -22056.09765     42.018749
    5046           0       304.229156  -2076.948242  -22412.19726     40.079788
    5047           0       304.229156  -2076.948242  -22768.29296     38.006561
    5048           0       304.229156  -2076.948242  -23124.39062     35.805298
    5049           0       304.229156  -2076.948242  -23480.48828     33.488968
    5050           0       304.229156  -2076.948242  -23836.58789     31.078114
    5051           0       304.229156  -2076.948242  -24192.68359     28.599100
    5052           0       304.229156  -2076.948242  -24548.78125     26.083822
    5053           0       304.229156  -2076.948242  -24904.87890     23.564489
    5054           0       304.229156  -2076.948242  -25260.97656     21.070124
    5055           0       304.229156  -2076.948242  -25617.07421     18.620810
    5056           0       304.229156  -2076.948242  -25973.17187     16.230410
    5057           0       304.229156  -2076.948242  -26329.26953     13.919461
    5058           0       304.229156  -2076.948242  -26685.36914     11.736683
    5059           0       304.229126  -2076.948242  -27041.46484      9.774368
    5060           0       304.229126  -2076.948242  -27397.56250      8.239452
    5061           0       304.229126  -2076.948242  -27753.66015      7.354841
    5062           0       304.229126  -2076.948242  -28109.75781      7.389548
    5063           0       304.229126  -2076.948242  -28465.85351      8.499846
    5064           0       304.229187  -2076.948242  -28821.95312      9.566162
    5065           0       424.478271  -2055.745117  -14578.05078     68.542671
    5066           0       424.478271  -2055.745117  -14934.14843     73.582817
    5067           0       424.478271  -2055.745117  -15290.24609     69.159943
    5068           0       424.478271  -2055.745117  -15646.34277     68.310410
    5069           0       424.478271  -2055.745117  -16002.44140     66.314362
    5070           0       424.478271  -2055.745117  -16358.53808     64.732056
    5071           0       424.478271  -2055.745117  -16714.63671     63.042133
    5072           0       424.478271  -2055.745117  -17070.73437     61.433193
    5073           0       424.478271  -2055.745117  -17426.83203     59.838306
    5074           0       424.478271  -2055.745117  -17782.92968     58.311157
    5075           0       424.478271  -2055.745117  -18139.02539     56.851059
    5076           0       424.478271  -2055.745117  -18495.12304     55.474659
    5077           0       424.478271  -2055.745117  -18851.22070     54.164665
    5078           0       424.478271  -2055.745117  -19207.31835     52.895462
    5079           0       424.478271  -2055.745117  -19563.41796     51.628765
    5080           0       424.478271  -2055.745117  -19919.51562     50.328278
    5081           0       424.478271  -2055.745117  -20275.61132     48.961960
    5082           0       424.478271  -2055.745117  -20631.70898     47.505619
    5083           0       424.478271  -2055.745117  -20987.80664     45.942089
    5084           0       424.478271  -2055.745117  -21343.90429     44.260410
    5085           0       424.478271  -2055.745117  -21700.00195     42.454494
    5086           0       424.478271  -2055.745117  -22056.09765     40.522224
    5087           0       424.478271  -2055.745117  -22412.19726     38.465149
    5088           0       424.478271  -2055.745117  -22768.29296     36.288445
    5089           0       424.478271  -2055.745117  -23124.39062     34.002075
    5090           0       424.478271  -2055.745117  -23480.48828     31.621197
    5091           0       424.478271  -2055.745117  -23836.58789     29.168732
    5092           0       424.478271  -2055.745117  -24192.68554     26.674982
    5093           0       424.478271  -2055.745117  -24548.78125     24.179836
    5094           0       424.478271  -2055.745117  -24904.87890     21.727308
    5095           0       424.478271  -2055.745117  -25260.97656     19.362293
    5096           0       424.478271  -2055.745117  -25617.07226     17.117252
    5097           0       424.478271  -2055.745117  -25973.17187     15.012301
    5098           0       424.478271  -2055.745117  -26329.26953     13.059048
    5099           0       424.478271  -2055.745117  -26685.36914     11.298502
    5100           0       424.478302  -2055.745117  -27041.46484      9.801488
    5101           0       424.478302  -2055.745117  -27397.56250      8.743184
    5102           0       424.478302  -2055.745117  -27753.66015      8.244111
    5103           0       424.478302  -2055.745117  -28109.75781      8.437591
    5104           0       424.478302  -2055.745117  -28465.85351      9.427687
    5105           0       424.478271  -2055.745117  -28821.95117     10.366223
    5106           0       543.291138  -2027.586060  -14578.05078     64.720924
    5107           0       543.291138  -2027.586060  -14934.14843     69.416939
    5108           0       543.291138  -2027.586060  -15290.24609     65.426765
    5109           0       543.291138  -2027.586060  -15646.34277     64.639084
    5110           0       543.291138  -2027.586060  -16002.44140     62.916473
    5111           0       543.291138  -2027.586060  -16358.53808     61.518234
    5112           0       543.291138  -2027.586060  -16714.63671     60.078888
    5113           0       543.291138  -2027.586060  -17070.73437     58.710934
    5114           0       543.291138  -2027.586060  -17426.83007     57.396214
    5115           0       543.291138  -2027.586060  -17782.92773     56.170517
    5116           0       543.291138  -2027.586060  -18139.02539     55.036827
    5117           0       543.291138  -2027.586060  -18495.12304     53.991940
    5118           0       543.291138  -2027.586060  -18851.22070     53.004627
    5119           0       543.291138  -2027.586060  -19207.31835     52.036392
    5120           0       543.291138  -2027.586060  -19563.41796     51.043221
    5121           0       543.291138  -2027.586060  -19919.51367     49.985836
    5122           0       543.291138  -2027.586060  -20275.61132     48.830753
    5123           0       543.291138  -2027.586060  -20631.70898     47.551674
    5124           0       543.291138  -2027.586060  -20987.80664     46.128941
    5125           0       543.291138  -2027.586060  -21343.90234     44.548702
    5126           0       543.291138  -2027.586060  -21700.00000     42.802807
    5127           0       543.291138  -2027.586060  -22056.09765     40.888363
    5128           0       543.291138  -2027.586060  -22412.19726     38.808735
    5129           0       543.291138  -2027.586060  -22768.29492     36.573627
    5130           0       543.291138  -2027.586060  -23124.39062     34.201012
    5131           0       543.291138  -2027.586060  -23480.48828     31.717123
    5132           0       543.291138  -2027.586060  -23836.58789     29.158913
    5133           0       543.291138  -2027.586060  -24192.68554     26.572853
    5134           0       543.291138  -2027.586060  -24548.78125     24.016523
    5135           0       543.291138  -2027.586060  -24904.87890     21.553297
    5136           0       543.291138  -2027.586060  -25260.97460     19.247290
    5137           0       543.291138  -2027.586060  -25617.07226     17.147390
    5138           0       543.291138  -2027.586060  -25973.17187     15.275698
    5139           0       543.291138  -2027.586060  -26329.26953     13.625454
    5140           0       543.291138  -2027.586060  -26685.36914     12.196971
    5141           0       543.291138  -2027.586060  -27041.46484     11.012884
    5142           0       543.291138  -2027.586060  -27397.56250     10.176428
    5143           0       543.291138  -2027.586060  -27753.66015      9.750928
    5144           0       543.291138  -2027.586060  -28109.75781      9.811723
    5145           0       543.291138  -2027.586060  -28465.85351     10.462170
    5146           0       543.291138  -2027.586060  -28821.94921     11.150090
    5147           0       660.265625  -1992.566162  -14578.05078     61.321327
    5148           0       660.265625  -1992.566162  -14934.14843     65.654495
    5149           0       660.265625  -1992.566162  -15290.24609     62.019798
    5150           0       660.265625  -1992.566162  -15646.34277     61.239605
    5151           0       660.265625  -1992.566162  -16002.44140     59.736248
    5152           0       660.265625  -1992.566162  -16358.53808     58.477062
    5153           0       660.265625  -1992.566162  -16714.63671     57.261494
    5154           0       660.265625  -1992.566162  -17070.73437     56.130783
    5155           0       660.265625  -1992.566162  -17426.83203     55.119911
    5156           0       660.265625  -1992.566162  -17782.92968     54.242805
    5157           0       660.265625  -1992.566162  -18139.02539     53.503056
    5158           0       660.265625  -1992.566162  -18495.12304     52.878986
    5159           0       660.265625  -1992.566162  -18851.22070     52.332172
    5160           0       660.265625  -1992.566162  -19207.31835     51.818817
    5161           0       660.265625  -1992.566162  -19563.41796     51.292068
    5162           0       660.265625  -1992.566162  -19919.51562     50.706860
    5163           0       660.265625  -1992.566162  -20275.61132     50.019348
    5164           0       660.265625  -1992.566162  -20631.70898     49.189137
    5165           0       660.265625  -1992.566162  -20987.80664     48.179985
    5166           0       660.265625  -1992.566162  -21343.90234     46.961788
    5167           0       660.265625  -1992.566162  -21700.00000     45.511963
    5168           0       660.265625  -1992.566162  -22056.09765     43.817169
    5169           0       660.265625  -1992.566162  -22412.19726     41.874706
    5170           0       660.265625  -1992.566162  -22768.29296     39.693798
    5171           0       660.265625  -1992.566162  -23124.39062     37.296917
    5172           0       660.265625  -1992.566162  -23480.48828     34.720379
    5173           0       660.265625  -1992.566162  -23836.58789     32.015224
    5174           0       660.265625  -1992.566162  -24192.68359     29.246891
    5175           0       660.265625  -1992.566162  -24548.78125     26.494404
    5176           0       660.265625  -1992.566162  -24904.87890     23.847525
    5177           0       660.265625  -1992.566162  -25260.97656     21.397472
    5178           0       660.265625  -1992.566162  -25617.07421     19.222532
    5179           0       660.265625  -1992.566162  -25973.17187     17.358114
    5180           0       660.265625  -1992.566162  -26329.26953     15.785626
    5181           0       660.265625  -1992.566162  -26685.36914     14.449985
    5182           0       660.265625  -1992.566162  -27041.46484     13.313109
    5183           0       660.265625  -1992.566162  -27397.56250     12.406281
    5184           0       660.265625  -1992.566162  -27753.66015     11.780410
    5185           0       660.265625  -1992.566162  -28109.75781     11.488914
    5186           0       660.265625  -1992.566162  -28465.85351     11.632013
    5187           0       660.265625  -1992.566162  -28821.95312     11.937953
    5188           0       775.005920  -1950.803833  -14578.05078     58.866165
    5189           0       775.005920  -1950.803833  -14934.14843     62.833252
    5190           0       775.005920  -1950.803833  -15290.24609     59.402508
    5191           0       775.005920  -1950.803833  -15646.34277     58.540394
    5192           0       775.005920  -1950.803833  -16002.44140     57.149033
    5193           0       775.005920  -1950.803833  -16358.53808     55.944145
    5194           0       775.005920  -1950.803833  -16714.63671     54.887653
    5195           0       775.005920  -1950.803833  -17070.73437     53.958984
    5196           0       775.005920  -1950.803833  -17426.83203     53.245224
    5197           0       775.005920  -1950.803833  -17782.92968     52.735538
    5198           0       775.005920  -1950.803833  -18139.02539     52.434834
    5199           0       775.005920  -1950.803833  -18495.12304     52.305897
    5200           0       775.005920  -1950.803833  -18851.22070     52.305538
    5201           0       775.005920  -1950.803833  -19207.31835     52.380154
    5202           0       775.005920  -1950.803833  -19563.41796     52.471561
    5203           0       775.005920  -1950.803833  -19919.51562     52.518028
    5204           0       775.005920  -1950.803833  -20275.61132     52.457386
    5205           0       775.005920  -1950.803833  -20631.70898     52.229698
    5206           0       775.005920  -1950.803833  -20987.80664     51.780830
    5207           0       775.005920  -1950.803833  -21343.90429     51.064594
    5208           0       775.005920  -1950.803833  -21700.00195     50.045471
    5209           0       775.005920  -1950.803833  -22056.09765     48.699650
    5210           0       775.005920  -1950.803833  -22412.19726     47.016846
    5211           0       775.005920  -1950.803833  -22768.29296     45.000767
    5212           0       775.005920  -1950.803833  -23124.39062     42.670460
    5213           0       775.005920  -1950.803833  -23480.48828     40.060982
    5214           0       775.005920  -1950.803833  -23836.58789     37.224648
    5215           0       775.005920  -1950.803833  -24192.68554     34.232658
    5216           0       775.005920  -1950.803833  -24548.78125     31.175236
    5217           0       775.005920  -1950.803833  -24904.87890     28.163099
    5218           0       775.005920  -1950.803833  -25260.97656     25.318359
    5219           0       775.005920  -1950.803833  -25617.07226     22.764870
    5220           0       775.005920  -1950.803833  -25973.17187     20.587179
    5221           0       775.005920  -1950.803833  -26329.26953     18.799873
    5222           0       775.005920  -1950.803833  -26685.36914     17.325382
    5223           0       775.005920  -1950.803833  -27041.46484     16.061853
    5224           0       775.005920  -1950.803833  -27397.56250     14.958070
    5225           0       775.005920  -1950.803833  -27753.66015     14.039800
    5226           0       775.005920  -1950.803833  -28109.75781     13.341937
    5227           0       775.005920  -1950.803833  -28465.85351     12.956236
    5228           0       775.005920  -1950.803833  -28821.95117     12.815086
    5229           0       887.123901  -1902.440918  -14578.05078     57.838650
    5230           0       887.123901  -1902.440918  -14934.14843     61.462605
    5231           0       887.123901  -1902.440918  -15290.24609     58.004772
    5232           0       887.123901  -1902.440918  -15646.34277     56.946873
    5233           0       887.123901  -1902.440918  -16002.44140     55.508865
    5234           0       887.123901  -1902.440918  -16358.53808     54.241440
    5235           0       887.123901  -1902.440918  -16714.63671     53.241451
    5236           0       887.123901  -1902.440918  -17070.73437     52.444500
    5237           0       887.123901  -1902.440918  -17426.83007     51.977974
    5238           0       887.123901  -1902.440918  -17782.92773     51.807907
    5239           0       887.123901  -1902.440918  -18139.02539     51.935238
    5240           0       887.123901  -1902.440918  -18495.12304     52.305290
    5241           0       887.123901  -1902.440918  -18851.22070     52.859035
    5242           0       887.123901  -1902.440918  -19207.31835     53.522030
    5243           0       887.123901  -1902.440918  -19563.41796     54.214329
    5244           0       887.123901  -1902.440918  -19919.51367     54.855469
    5245           0       887.123901  -1902.440918  -20275.61132     55.368656
    5246           0       887.123901  -1902.440918  -20631.70898     55.684330
    5247           0       887.123901  -1902.440918  -20987.80664     55.742001
    5248           0       887.123901  -1902.440918  -21343.90234     55.491314
    5249           0       887.123901  -1902.440918  -21700.00000     54.892811
    5250           0       887.123901  -1902.440918  -22056.09765     53.918030
    5251           0       887.123901  -1902.440918  -22412.19726     52.549988
    5252           0       887.123901  -1902.440918  -22768.29492     50.783386
    5253           0       887.123901  -1902.440918  -23124.39062     48.625404
    5254           0       887.123901  -1902.440918  -23480.48828     46.097332
    5255           0       887.123901  -1902.440918  -23836.58789     43.236507
    5256           0       887.123901  -1902.440918  -24192.68554     40.100929
    5257           0       887.123901  -1902.440918  -24548.78125     36.772011
    5258           0       887.123901  -1902.440918  -24904.87890     33.361729
    5259           0       887.123901  -1902.440674  -25260.97460     30.009096
    5260           0       887.123901  -1902.440674  -25617.07226     26.879503
    5261           0       887.123901  -1902.440674  -25973.17187     24.130409
    5262           0       887.123901  -1902.440674  -26329.26953     21.867205
    5263           0       887.123901  -1902.440674  -26685.36914     20.069420
    5264           0       887.123901  -1902.440674  -27041.46484     18.605349
    5265           0       887.123901  -1902.440674  -27397.56250     17.328712
    5266           0       887.123901  -1902.440674  -27753.66015     16.190113
    5267           0       887.123901  -1902.440674  -28109.75781     15.191792
    5268           0       887.123901  -1902.440674  -28465.85351     14.435113
    5269           0       887.123901  -1902.440674  -28821.94921     13.902867
    5270           0       996.240112  -1847.640503  -14578.05078     58.641510
    5271           0       996.240112  -1847.640503  -14934.14843     61.961239
    5272           0       996.240112  -1847.640503  -15290.24609     58.190388
    5273           0       996.240112  -1847.640503  -15646.34277     56.801327
    5274           0       996.240112  -1847.640503  -16002.44140     55.126263
    5275           0       996.240112  -1847.640503  -16358.53808     53.655029
    5276           0       996.240112  -1847.640503  -16714.63671     52.577805
    5277           0       996.240112  -1847.640503  -17070.73437     51.797977
    5278           0       996.240112  -1847.640503  -17426.83203     51.467323
    5279           0       996.240112  -1847.640503  -17782.92968     51.521599
    5280           0       996.240112  -1847.640503  -18139.02539     51.946312
    5281           0       996.240112  -1847.640503  -18495.12304     52.659801
    5282           0       996.240112  -1847.640503  -18851.22070     53.579140
    5283           0       996.240112  -1847.640503  -19207.31835     54.608620
    5284           0       996.240112  -1847.640503  -19563.41796     55.654907
    5285           0       996.240112  -1847.640503  -19919.51562     56.633305
    5286           0       996.240112  -1847.640503  -20275.61132     57.469162
    5287           0       996.240112  -1847.640503  -20631.70898     58.099617
    5288           0       996.240112  -1847.640503  -20987.80664     58.471535
    5289           0       996.240112  -1847.640503  -21343.90234     58.541008
    5290           0       996.240112  -1847.640503  -21700.00000     58.271603
    5291           0       996.240112  -1847.640503  -22056.09765     57.633911
    5292           0       996.240112  -1847.640503  -22412.19726     56.604733
    5293           0       996.240112  -1847.640503  -22768.29296     55.167488
    5294           0       996.240112  -1847.640503  -23124.39062     53.312511
    5295           0       996.240112  -1847.640503  -23480.48828     51.039524
    5296           0       996.240112  -1847.640503  -23836.58789     48.359997
    5297           0       996.240112  -1847.640503  -24192.68359     45.303333
    5298           0       996.240112  -1847.640503  -24548.78125     41.922218
    5299           0       996.240112  -1847.640503  -24904.87890     38.303112
    5300           0       996.240112  -1847.640503  -25260.97656     34.571846
    5301           0       996.240112  -1847.640503  -25617.07421     30.901686
    5302           0       996.240112  -1847.640503  -25973.17187     27.502499
    5303           0       996.240112  -1847.640503  -26329.26953     24.587971
    5304           0       996.240112  -1847.640503  -26685.36914     22.285982
    5305           0       996.240112  -1847.640503  -27041.46484     20.541935
    5306           0       996.240112  -1847.640503  -27397.56250     19.163301
    5307           0       996.240112  -1847.640503  -27753.66015     17.974169
    5308           0       996.240112  -1847.640503  -28109.75781     16.901134
    5309           0       996.240112  -1847.640503  -28465.85351     16.080996
    5310           0       996.240112  -1847.640503  -28821.95312     15.335595
    5311           0      1101.985352  -1786.588501  -14578.05078     61.551846
    5312           0      1101.985352  -1786.588501  -14934.14843     64.615616
    5313           0      1101.985352  -1786.588501  -15290.24609     60.211063
    5314           0      1101.985352  -1786.588501  -15646.34277     58.351505
    5315           0      1101.985352  -1786.588501  -16002.44140     56.236801
    5316           0      1101.985352  -1786.588501  -16358.53808     54.407494
    5317           0      1101.985352  -1786.588501  -16714.63671     53.082623
    5318           0      1101.985352  -1786.588501  -17070.73437     52.137058
    5319           0      1101.985352  -1786.588501  -17426.83203     51.718616
    5320           0      1101.985352  -1786.588501  -17782.92968     51.718956
    5321           0      1101.985352  -1786.588501  -18139.02539     52.103863
    5322           0      1101.985352  -1786.588501  -18495.12304     52.771069
    5323           0      1101.985352  -1786.588501  -18851.22070     53.631107
    5324           0      1101.985352  -1786.588501  -19207.31835     54.590199
    5325           0      1101.985352  -1786.588501  -19563.41796     55.567261
    5326           0      1101.985352  -1786.588501  -19919.51562     56.492863
    5327           0      1101.985352  -1786.588501  -20275.61132     57.309555
    5328           0      1101.985352  -1786.588501  -20631.70898     57.968849
    5329           0      1101.985352  -1786.588501  -20987.80664     58.429741
    5330           0      1101.985352  -1786.588501  -21343.90429     58.655495
    5331           0      1101.985352  -1786.588501  -21700.00195     58.613075
    5332           0      1101.985352  -1786.588501  -22056.09765     58.271084
    5333           0      1101.985352  -1786.588501  -22412.19726     57.600067
    5334           0      1101.985352  -1786.588501  -22768.29296     56.571678
    5335           0      1101.985352  -1786.588501  -23124.39062     55.160114
    5336           0      1101.985352  -1786.588501  -23480.48828     53.342968
    5337           0      1101.985352  -1786.588501  -23836.58789     51.104813
    5338           0      1101.985352  -1786.588501  -24192.68554     48.440922
    5339           0      1101.985352  -1786.588501  -24548.78125     45.364967
    5340           0      1101.985352  -1786.588501  -24904.87890     41.917549
    5341           0      1101.985352  -1786.588501  -25260.97656     38.180210
    5342           0      1101.985352  -1786.588501  -25617.07226     34.288258
    5343           0      1101.985352  -1786.588501  -25973.17187     30.445099
    5344           0      1101.985352  -1786.588501  -26329.26953     26.916872
    5345           0      1101.985352  -1786.588501  -26685.36914     23.996086
    5346           0      1101.985352  -1786.588501  -27041.46484     21.836655
    5347           0      1101.985352  -1786.588501  -27397.56250     20.367132
    5348           0      1101.985352  -1786.588501  -27753.66015     19.313938
    5349           0      1101.985352  -1786.588501  -28109.75781     18.463343
    5350           0      1101.985352  -1786.588501  -28465.85351     17.981150
    5351           0      1101.985352  -1786.588501  -28821.95117     17.264202
    5352           0      1204.001953  -1719.490967  -14578.05078     66.676399
    5353           0      1204.001953  -1719.490967  -14934.14843     69.545952
    5354           0      1204.001953  -1719.490967  -15290.24609     64.171944
    5355           0      1204.001953  -1719.490967  -15646.34277     61.724880
    5356           0      1204.001953  -1719.490967  -16002.44140     58.966782
    5357           0      1204.001953  -1719.490967  -16358.53808     56.606617
    5358           0      1204.001953  -1719.490967  -16714.63671     54.791477
    5359           0      1204.001953  -1719.490967  -17070.73437     53.368656
    5360           0      1204.001953  -1719.490967  -17426.83007     52.438129
    5361           0      1204.001953  -1719.490967  -17782.92773     51.864933
    5362           0      1204.001953  -1719.490967  -18139.02539     51.623940
    5363           0      1204.001953  -1719.490967  -18495.12304     51.638184
    5364           0      1204.001953  -1719.490967  -18851.22070     51.852135
    5365           0      1204.001953  -1719.490967  -19207.31835     52.210289
    5366           0      1204.001953  -1719.490967  -19563.41796     52.662636
    5367           0      1204.001953  -1719.490967  -19919.51367     53.163647
    5368           0      1204.001953  -1719.490967  -20275.61132     53.669834
    5369           0      1204.001953  -1719.490967  -20631.70898     54.139816
    5370           0      1204.001953  -1719.490967  -20987.80664     54.533489
    5371           0      1204.001953  -1719.490967  -21343.90234     54.811634
    5372           0      1204.001953  -1719.490967  -21700.00000     54.935818
    5373           0      1204.001953  -1719.490967  -22056.09765     54.868111
    5374           0      1204.001953  -1719.490967  -22412.19726     54.570999
    5375           0      1204.001953  -1719.490967  -22768.29492     54.007332
    5376           0      1204.001953  -1719.490967  -23124.39062     53.140652
    5377           0      1204.001953  -1719.490967  -23480.48828     51.935398
    5378           0      1204.001953  -1719.490967  -23836.58789     50.358715
    5379           0      1204.001953  -1719.490967  -24192.68554     48.381535
    5380           0      1204.001953  -1719.490967  -24548.78125     45.984241
    5381           0      1204.001953  -1719.490967  -24904.87890     43.161671
    5382           0      1204.001953  -1719.490967  -25260.97460     39.936989
    5383           0      1204.001953  -1719.490967  -25617.07226     36.377171
    5384           0      1204.001953  -1719.490967  -25973.17187     32.619099
    5385           0      1204.001953  -1719.490967  -26329.26953     28.886038
    5386           0      1204.001953  -1719.490967  -26685.36914     25.525785
    5387           0      1204.001953  -1719.490967  -27041.46484     22.902889
    5388           0      1204.001953  -1719.490967  -27397.56250     21.269869
    5389           0      1204.001953  -1719.490967  -27753.66015     20.453209
    5390           0      1204.001953  -1719.490967  -28109.75781     20.104862
    5391           0      1204.001953  -1719.490967  -28465.85351     20.377462
    5392           0      1204.001953  -1719.490967  -28821.94921     19.894348
    5393           0      1301.944458  -1646.575439  -14578.05078     73.933189
    5394           0      1301.944458  -1646.575439  -14934.14843     76.663689
    5395           0      1301.944458  -1646.575439  -15290.24609     70.019089
    5396           0      1301.944458  -1646.575439  -15646.34277     66.890556
    5397           0      1301.944458  -1646.575439  -16002.44140     63.272552
    5398           0      1301.944458  -1646.575439  -16358.53808     60.136738
    5399           0      1301.944458  -1646.575439  -16714.63671     57.446526
    5400           0      1301.944458  -1646.575439  -17070.73437     55.008114
    5401           0      1301.944458  -1646.575439  -17426.83203     52.881355
    5402           0      1301.944458  -1646.575439  -17782.92968     50.982971
    5403           0      1301.944458  -1646.575439  -18139.02539     49.372932
    5404           0      1301.944458  -1646.575439  -18495.12304     48.061306
    5405           0      1301.944458  -1646.575439  -18851.22070     47.074902
    5406           0      1301.944458  -1646.575439  -19207.31835     46.415836
    5407           0      1301.944458  -1646.575439  -19563.41796     46.067066
    5408           0      1301.944458  -1646.575439  -19919.51562     45.988171
    5409           0      1301.944458  -1646.575439  -20275.61132     46.124603
    5410           0      1301.944458  -1646.575439  -20631.70898     46.408707
    5411           0      1301.944458  -1646.575439  -20987.80664     46.772991
    5412           0      1301.944458  -1646.575439  -21343.90234     47.148407
    5413           0      1301.944458  -1646.575439  -21700.00000     47.474670
    5414           0      1301.944458  -1646.575439  -22056.09765     47.695408
    5415           0      1301.944458  -1646.575439  -22412.19726     47.764828
    5416           0      1301.944458  -1646.575439  -22768.29296     47.641113
    5417           0      1301.944458  -1646.575439  -23124.39062     47.291504
    5418           0      1301.944458  -1646.575439  -23480.48828     46.684376
    5419           0      1301.944458  -1646.575439  -23836.58789     45.794647
    5420           0      1301.944458  -1646.575439  -24192.68359     44.594913
    5421           0      1301.944580  -1646.575439  -24548.78125     43.062729
    5422           0      1301.944580  -1646.575439  -24904.87890     41.174290
    5423           0      1301.944580  -1646.575439  -25260.97656     38.916359
    5424           0      1301.944580  -1646.575439  -25617.07421     36.292656
    5425           0      1301.944580  -1646.575439  -25973.17187     33.351650
    5426           0      1301.944580  -1646.575439  -26329.26953     30.206020
    5427           0      1301.944580  -1646.575439  -26685.36914     27.104176
    5428           0      1301.944580  -1646.575439  -27041.46484     24.413952
    5429           0      1301.944580  -1646.575439  -27397.56250     22.688932
    5430           0      1301.944580  -1646.575439  -27753.66015     22.095490
    5431           0      1301.944580  -1646.575439  -28109.75781     22.362984
    5432           0      1301.944580  -1646.575439  -28465.85351     23.701355
    5433           0      1301.944580  -1646.575439  -28821.95312     23.533663
    5434           0      1395.481689  -1568.088257  -14578.05078     83.029709
    5435           0      1395.481689  -1568.088257  -14934.14843     85.671227
    5436           0      1395.481689  -1568.088257  -15290.24609     77.508026
    5437           0      1395.481689  -1568.088257  -15646.34277     73.597542
    5438           0      1395.481689  -1568.088257  -16002.44140     68.809677
    5439           0      1395.481689  -1568.088257  -16358.53808     64.493881
    5440           0      1395.481689  -1568.088257  -16714.63671     60.288406
    5441           0      1395.481689  -1568.088257  -17070.73437     56.023205
    5442           0      1395.481689  -1568.088257  -17426.83203     51.836987
    5443           0      1395.481689  -1568.088257  -17782.92968     47.822697
    5444           0      1395.481689  -1568.088257  -18139.02539     44.193378
    5445           0      1395.481689  -1568.088257  -18495.12304     41.110592
    5446           0      1395.481689  -1568.088257  -18851.22070     38.717140
    5447           0      1395.481689  -1568.088257  -19207.31835     37.086964
    5448           0      1395.481689  -1568.088257  -19563.41796     36.208469
    5449           0      1395.481689  -1568.088257  -19919.51562     35.988880
    5450           0      1395.481689  -1568.088257  -20275.61132     36.277504
    5451           0      1395.481689  -1568.088257  -20631.70898     36.898067
    5452           0      1395.481689  -1568.088257  -20987.80664     37.683689
    5453           0      1395.481689  -1568.088257  -21343.90429     38.490074
    5454           0      1395.481689  -1568.088257  -21700.00195     39.206593
    5455           0      1395.481689  -1568.088257  -22056.09765     39.752686
    5456           0      1395.481689  -1568.088257  -22412.19726     40.076527
    5457           0      1395.481689  -1568.088257  -22768.29296     40.149490
    5458           0      1395.481689  -1568.088257  -23124.39062     39.963406
    5459           0      1395.481689  -1568.088257  -23480.48828     39.525444
    5460           0      1395.481689  -1568.088257  -23836.58789     38.856750
    5461           0      1395.481689  -1568.088257  -24192.68554     37.985889
    5462           0      1395.481689  -1568.088257  -24548.78125     36.946079
    5463           0      1395.481689  -1568.088257  -24904.87890     35.769241
    5464           0      1395.481689  -1568.088257  -25260.97656     34.474529
    5465           0      1395.481689  -1568.088257  -25617.07226     33.075283
    5466           0      1395.481689  -1568.088257  -25973.17187     31.562262
    5467           0      1395.481689  -1568.088257  -26329.26953     29.940605
    5468           0      1395.481689  -1568.088257  -26685.36914     28.252708
    5469           0      1395.481689  -1568.088257  -27041.46484     26.591911
    5470           0      1395.481689  -1568.088257  -27397.56250     25.425175
    5471           0      1395.481689  -1568.088257  -27753.66015     25.210197
    5472           0      1395.481689  -1568.088257  -28109.75781     25.982073
    5473           0      1395.481689  -1568.088257  -28465.85351     28.490824
    5474           0      1395.481689  -1568.088257  -28821.95117     28.557983
    5475           0      1484.296875  -1484.295166  -14578.05078     93.462372
    5476           0      1484.296875  -1484.295166  -14934.14843     96.059013
    5477           0      1484.296875  -1484.295166  -15290.24609     86.159630
    5478           0      1484.296875  -1484.295166  -15646.34277     81.244247
    5479           0      1484.296875  -1484.295166  -16002.44140     74.787727
    5480           0      1484.296875  -1484.295166  -16358.53808     68.605576
    5481           0      1484.296875  -1484.295166  -16714.63671     61.961082
    5482           0      1484.296875  -1484.295166  -17070.73437     54.979206
    5483           0      1484.296875  -1484.295166  -17426.83007     48.071716
    5484           0      1484.296875  -1484.295166  -17782.92773     41.563534
    5485           0      1484.296875  -1484.295166  -18139.02539     35.897469
    5486           0      1484.296875  -1484.295166  -18495.12304     31.477215
    5487           0      1484.296875  -1484.295166  -18851.22070     28.658327
    5488           0      1484.296875  -1484.295166  -19207.31835     27.577803
    5489           0      1484.296875  -1484.295166  -19563.41796     28.022144
    5490           0      1484.296875  -1484.295166  -19919.51367     29.519514
    5491           0      1484.296875  -1484.295166  -20275.61132     31.557514
    5492           0      1484.296875  -1484.295166  -20631.70898     33.719551
    5493           0      1484.296875  -1484.295166  -20987.80664     35.730297
    5494           0      1484.296875  -1484.295166  -21343.90234     37.400829
    5495           0      1484.296875  -1484.295166  -21700.00000     38.631157
    5496           0      1484.296875  -1484.295166  -22056.09765     39.348682
    5497           0      1484.296875  -1484.295166  -22412.19726     39.536640
    5498           0      1484.296875  -1484.295166  -22768.29492     39.181580
    5499           0      1484.296875  -1484.295166  -23124.39062     38.318542
    5500           0      1484.296875  -1484.295166  -23480.48828     36.982441
    5501           0      1484.296875  -1484.295166  -23836.58789     35.263020
    5502           0      1484.296875  -1484.295166  -24192.68554     33.262745
    5503           0      1484.296875  -1484.295166  -24548.78125     31.151344
    5504           0      1484.296875  -1484.295166  -24904.87890     29.135889
    5505           0      1484.296875  -1484.295166  -25260.97460     27.472660
    5506           0      1484.296875  -1484.295166  -25617.07226     26.422394
    5507           0      1484.296875  -1484.295166  -25973.17187     26.133762
    5508           0      1484.296875  -1484.295166  -26329.26953     26.578051
    5509           0      1484.296875  -1484.295166  -26685.36914     27.522390
    5510           0      1484.296875  -1484.295166  -27041.46484     28.505241
    5511           0      1484.296875  -1484.295166  -27397.56250     29.321754
    5512           0      1484.296875  -1484.295166  -27753.66015     30.279554
    5513           0      1484.296875  -1484.295166  -28109.75781     31.567251
    5514           0      1484.297119  -1484.295166  -28465.85351     35.213486
    5515           0      1484.296875  -1484.295166  -28821.94921     35.307743
    5516           0      1568.089844  -1395.479858  -14578.05078    104.532478
    5517           0      1568.089844  -1395.479858  -14934.14843    107.091660
    5518           0      1568.089844  -1395.479858  -15290.24609     95.124718
    5519           0      1568.089844  -1395.479858  -15646.34277     88.741684
    5520           0      1568.089844  -1395.479858  -16002.44140     79.824425
    5521           0      1568.089844  -1395.479858  -16358.53808     70.793159
    5522           0      1568.089844  -1395.479858  -16714.63671     60.852047
    5523           0      1568.089844  -1395.479858  -17070.73437     50.909439
    5524           0      1568.089844  -1395.479858  -17426.83203     41.675468
    5525           0      1568.089844  -1395.479858  -17782.92968     33.889164
    5526           0      1568.089844  -1395.479858  -18139.02539     28.469969
    5527           0      1568.089844  -1395.479858  -18495.12304     26.255573
    5528           0      1568.089844  -1395.479858  -18851.22070     27.224583
    5529           0      1568.089844  -1395.479858  -19207.31835     30.382891
    5530           0      1568.089844  -1395.479858  -19563.41796     34.515884
    5531           0      1568.089844  -1395.479858  -19919.51562     38.827618
    5532           0      1568.089844  -1395.479858  -20275.61132     42.856663
    5533           0      1568.089844  -1395.479858  -20631.70898     46.364643
    5534           0      1568.089844  -1395.479858  -20987.80664     49.212666
    5535           0      1568.089844  -1395.479858  -21343.90234     51.329659
    5536           0      1568.089844  -1395.479858  -21700.00000     52.666920
    5537           0      1568.089844  -1395.479858  -22056.09765     53.206238
    5538           0      1568.089844  -1395.479858  -22412.19726     52.927628
    5539           0      1568.089844  -1395.479858  -22768.29296     51.836960
    5540           0      1568.089844  -1395.479858  -23124.39062     49.928555
    5541           0      1568.089844  -1395.479858  -23480.48828     47.231129
    5542           0      1568.089844  -1395.479858  -23836.58789     43.759624
    5543           0      1568.089844  -1395.479858  -24192.68359     39.589539
    5544           0      1568.089844  -1395.479858  -24548.78125     34.797012
    5545           0      1568.089844  -1395.479858  -24904.87890     29.604521
    5546           0      1568.089844  -1395.479858  -25260.97656     24.344044
    5547           0      1568.089844  -1395.479858  -25617.07421     19.851847
    5548           0      1568.089844  -1395.479858  -25973.17187     17.484133
    5549           0      1568.089844  -1395.479858  -26329.26953     18.653112
    5550           0      1568.089844  -1395.479858  -26685.36914     22.778999
    5551           0      1568.089844  -1395.479858  -27041.46484     28.059721
    5552           0      1568.089844  -1395.479858  -27397.56250     32.849945
    5553           0      1568.089844  -1395.479858  -27753.66015     36.626148
    5554           0      1568.089844  -1395.479858  -28109.75781     39.092606
    5555           0      1568.089844  -1395.479858  -28465.85351     44.086918
    5556           0      1568.089844  -1395.479858  -28821.95312     43.939610
    5557           0      1646.576782  -1301.942627  -14578.05078    115.391090
    5558           0      1646.576782  -1301.942627  -14934.14843    117.671661
    5559           0      1646.576782  -1301.942627  -15290.24609    103.046089
    5560           0      1646.576782  -1301.942627  -15646.34277     94.380020
    5561           0      1646.576782  -1301.942627  -16002.44140     81.969666
    5562           0      1646.576782  -1301.942627  -16358.53808     69.318085
    5563           0      1646.576782  -1301.942627  -16714.63671     56.586063
    5564           0      1646.576782  -1301.942627  -17070.73437     45.571987
    5565           0      1646.576782  -1301.942627  -17426.83203     37.504818
    5566           0      1646.576782  -1301.942627  -17782.92968     33.726849
    5567           0      1646.576782  -1301.942627  -18139.02539     34.479656
    5568           0      1646.576782  -1301.942627  -18495.12304     38.556278
    5569           0      1646.576782  -1301.942627  -18851.22070     44.172268
    5570           0      1646.576782  -1301.942627  -19207.31835     50.225403
    5571           0      1646.576782  -1301.942627  -19563.41796     56.035217
    5572           0      1646.576782  -1301.942627  -19919.51562     61.317337
    5573           0      1646.576782  -1301.942627  -20275.61132     65.879150
    5574           0      1646.576782  -1301.942627  -20631.70898     69.654472
    5575           0      1646.576782  -1301.942627  -20987.80664     72.580353
    5576           0      1646.576782  -1301.942627  -21343.90429     74.642639
    5577           0      1646.576782  -1301.942627  -21700.00195     75.814850
    5578           0      1646.576782  -1301.942627  -22056.09765     76.090767
    5579           0      1646.576782  -1301.942627  -22412.19726     75.454529
    5580           0      1646.576782  -1301.942627  -22768.29296     73.892982
    5581           0      1646.576782  -1301.942627  -23124.39062     71.394379
    5582           0      1646.576782  -1301.942627  -23480.48828     67.934090
    5583           0      1646.576782  -1301.942627  -23836.58789     63.504681
    5584           0      1646.576782  -1301.942627  -24192.68554     58.074230
    5585           0      1646.576782  -1301.942627  -24548.78125     51.644207
    5586           0      1646.576782  -1301.942627  -24904.87890     44.198093
    5587           0      1646.576782  -1301.942627  -25260.97656     35.771534
    5588           0      1646.576782  -1301.942627  -25617.07226     26.466684
    5589           0      1646.576782  -1301.942627  -25973.17187     16.658123
    5590           0      1646.576782  -1301.942627  -26329.26953      8.636015
    5591           0      1646.576782  -1301.942627  -26685.36914     12.088038
    5592           0      1646.576782  -1301.942627  -27041.46484     22.632105
    5593           0      1646.576782  -1301.942627  -27397.56250     33.403938
    5594           0      1646.576782  -1301.942627  -27753.66015     42.371532
    5595           0      1646.576782  -1301.942627  -28109.75781     47.611294
    5596           0      1646.576782  -1301.942627  -28465.85351     54.837559
    5597           0      1646.576782  -1301.942627  -28821.95117     54.329517
    5598           0      1719.492432  -1204.000000  -14578.05078    124.886589
    5599           0      1719.492432  -1204.000000  -14934.14843    126.162476
    5600           0      1719.492432  -1204.000000  -15290.24609    107.927856
    5601           0      1719.492432  -1204.000000  -15646.34277     96.000778
    5602           0      1719.492432  -1204.000000  -16002.44140     79.501083
    5603           0      1719.492432  -1204.000000  -16358.53808     64.874168
    5604           0      1719.492432  -1204.000000  -16714.63671     53.422512
    5605           0      1719.492432  -1204.000000  -17070.73437     47.239956
    5606           0      1719.492432  -1204.000000  -17426.83007     46.560009
    5607           0      1719.492432  -1204.000000  -17782.92773     50.320843
    5608           0      1719.492432  -1204.000000  -18139.02539     56.373394
    5609           0      1719.492432  -1204.000000  -18495.12304     63.366013
    5610           0      1719.492432  -1204.000000  -18851.22070     70.302948
    5611           0      1719.492432  -1204.000000  -19207.31835     76.840813
    5612           0      1719.492432  -1204.000000  -19563.41796     82.694412
    5613           0      1719.492432  -1204.000000  -19919.51367     87.792152
    5614           0      1719.492432  -1204.000000  -20275.61132     92.075600
    5615           0      1719.492432  -1204.000000  -20631.70898     95.512756
    5616           0      1719.492432  -1204.000000  -20987.80664     98.122406
    5617           0      1719.492432  -1204.000000  -21343.90234     99.863411
    5618           0      1719.492432  -1204.000000  -21700.00000    100.776649
    5619           0      1719.492432  -1204.000000  -22056.09765    100.806450
    5620           0      1719.492432  -1204.000000  -22412.19726     99.988007
    5621           0      1719.492432  -1204.000000  -22768.29492     98.256958
    5622           0      1719.492432  -1204.000000  -23124.39062     95.623955
    5623           0      1719.492432  -1204.000000  -23480.48828     92.025764
    5624           0      1719.492432  -1204.000000  -23836.58789     87.431671
    5625           0      1719.492432  -1204.000000  -24192.68554     81.792610
    5626           0      1719.492432  -1204.000000  -24548.78125     75.018921
    5627           0      1719.492432  -1204.000000  -24904.87890     67.093399
    5628           0      1719.492432  -1204.000000  -25260.97460     57.853611
    5629           0      1719.492432  -1204.000000  -25617.07226     47.344017
    5630           0      1719.492432  -1204.000000  -25973.17187     35.367928
    5631           0      1719.492432  -1203.999878  -26329.26953     22.180616
    5632           0      1719.492432  -1203.999878  -26685.36914      8.959121
    5633           0      1719.492432  -1203.999878  -27041.46484     12.254850
    5634           0      1719.492432  -1203.999878  -27397.56250     28.311258
    5635           0      1719.492432  -1203.999878  -27753.66015     44.504433
    5636           0      1719.492432  -1203.999878  -28109.75781     55.145264
    5637           0      1719.492432  -1203.999878  -28465.85351     66.324135
    5638           0      1719.492432  -1203.999878  -28821.94921     65.953644
    5639           0      1786.589478  -1101.983398  -14578.05078    131.415237
    5640           0      1786.589478  -1101.983398  -14934.14843    130.007034
    5641           0      1786.589478  -1101.983398  -15290.24609    107.691910
    5642           0      1786.589478  -1101.983398  -15646.34277     92.204117
    5643           0      1786.589478  -1101.983398  -16002.44140     74.952278
    5644           0      1786.589478  -1101.983398  -16358.53808     65.203140
    5645           0      1786.589478  -1101.983398  -16714.63671     62.187431
    5646           0      1786.589478  -1101.983398  -17070.73437     64.616119
    5647           0      1786.589478  -1101.983398  -17426.83203     70.322037
    5648           0      1786.589478  -1101.983398  -17782.92968     77.270988
    5649           0      1786.589478  -1101.983398  -18139.02539     84.515175
    5650           0      1786.589478  -1101.983398  -18495.12304     91.416420
    5651           0      1786.589478  -1101.983398  -18851.22070     97.728592
    5652           0      1786.589478  -1101.983398  -19207.31835    103.360725
    5653           0      1786.589478  -1101.983398  -19563.41796    108.206299
    5654           0      1786.589478  -1101.983398  -19919.51562    112.350761
    5655           0      1786.589478  -1101.983398  -20275.61132    115.690796
    5656           0      1786.589478  -1101.983398  -20631.70898    118.370705
    5657           0      1786.589478  -1101.983398  -20987.80664    120.264946
    5658           0      1786.589478  -1101.983398  -21343.90234    121.532112
    5659           0      1786.589478  -1101.983398  -21700.00000    122.023918
    5660           0      1786.589478  -1101.983398  -22056.09765    121.891121
    5661           0      1786.589478  -1101.983398  -22412.19726    120.967484
    5662           0      1786.589478  -1101.983398  -22768.29296    119.381264
    5663           0      1786.589478  -1101.983398  -23124.39062    116.953957
    5664           0      1786.589478  -1101.983398  -23480.48828    113.778008
    5665           0      1786.589478  -1101.983398  -23836.58789    109.668617
    5666           0      1786.589478  -1101.983398  -24192.68359    104.667221
    5667           0      1786.589478  -1101.983398  -24548.78125     98.589279
    5668           0      1786.589478  -1101.983398  -24904.87890     91.405823
    5669           0      1786.589478  -1101.983398  -25260.97656     82.943993
    5670           0      1786.589478  -1101.983398  -25617.07421     73.086449
    5671           0      1786.589478  -1101.983398  -25973.17187     61.719120
    5672           0      1786.589478  -1101.983398  -26329.26953     48.723911
    5673           0      1786.589478  -1101.983398  -26685.36914     34.524384
    5674           0      1786.589478  -1101.983398  -27041.46484     21.632902
    5675           0      1786.589478  -1101.983398  -27397.56250     21.831232
    5676           0      1786.589478  -1101.983398  -27753.66015     40.263378
    5677           0      1786.589478  -1101.983398  -28109.75781     58.242664
    5678           0      1786.589478  -1101.983398  -28465.85351     76.256020
    5679           0      1786.589478  -1101.983398  -28821.95312     77.334793
    5680           0      1847.641602   -996.238037  -14578.05078    132.079987
    5681           0      1847.641602   -996.238037  -14934.14843    126.504990
    5682           0      1847.641602   -996.238037  -15290.24609    102.501869
    5683           0      1847.641602   -996.238037  -15646.34277     88.750847
    5684           0      1847.641602   -996.238037  -16002.44140     80.965446
    5685           0      1847.641602   -996.238037  -16358.53808     82.425186
    5686           0      1847.641602   -996.238037  -16714.63671     86.997215
    5687           0      1847.641602   -996.238037  -17070.73437     93.416878
    5688           0      1847.641602   -996.238037  -17426.83203     99.861771
    5689           0      1847.641602   -996.238037  -17782.92968    106.078903
    5690           0      1847.641602   -996.238037  -18139.02539    111.643959
    5691           0      1847.641602   -996.238037  -18495.12304    116.556198
    5692           0      1847.641602   -996.238037  -18851.22070    120.812828
    5693           0      1847.641602   -996.238037  -19207.31835    124.373383
    5694           0      1847.641602   -996.238037  -19563.41796    127.397881
    5695           0      1847.641602   -996.238037  -19919.51562    129.770248
    5696           0      1847.641602   -996.238037  -20275.61132    131.718491
    5697           0      1847.641602   -996.238037  -20631.70898    133.067505
    5698           0      1847.641602   -996.238037  -20987.80664    134.067123
    5699           0      1847.641602   -996.238037  -21343.90429    134.502609
    5700           0      1847.641602   -996.238037  -21700.00195    134.621399
    5701           0      1847.641602   -996.238037  -22056.09765    134.181427
    5702           0      1847.641602   -996.238037  -22412.19726    133.414474
    5703           0      1847.641602   -996.238037  -22768.29296    132.057526
    5704           0      1847.641602   -996.238037  -23124.39062    130.316284
    5705           0      1847.641602   -996.238037  -23480.48828    127.911537
    5706           0      1847.641602   -996.238037  -23836.58789    125.007820
    5707           0      1847.641602   -996.238037  -24192.68554    121.318123
    5708           0      1847.641602   -996.238037  -24548.78125    116.939194
    5709           0      1847.641602   -996.238037  -24904.87890    111.592072
    5710           0      1847.641602   -996.238037  -25260.97656    105.262238
    5711           0      1847.641602   -996.238037  -25617.07226     97.704620
    5712           0      1847.641602   -996.238037  -25973.17187     88.742798
    5713           0      1847.641602   -996.238037  -26329.26953     78.221024
    5714           0      1847.641602   -996.238037  -26685.36914     65.901443
    5715           0      1847.641602   -996.238037  -27041.46484     52.221439
    5716           0      1847.641602   -996.238037  -27397.56250     39.350159
    5717           0      1847.641602   -996.238037  -27753.66015     37.426682
    5718           0      1847.641602   -996.238037  -28109.75781     54.200500
    5719           0      1847.641602   -996.238037  -28465.85351     80.015556
    5720           0      1847.641602   -996.238037  -28821.95117     86.113136
    5721           0      1902.441772   -887.121765  -14578.05078    122.758072
    5722           0      1902.441772   -887.121765  -14934.14843    117.274117
    5723           0      1902.441772   -887.121765  -15290.24609    107.063866
    5724           0      1902.441772   -887.121765  -15646.34277    103.940041
    5725           0      1902.441772   -887.121765  -16002.44140    109.850319
    5726           0      1902.441772   -887.121765  -16358.53808    114.181183
    5727           0      1902.441772   -887.121765  -16714.63671    119.740578
    5728           0      1902.441772   -887.121765  -17070.73437    123.363945
    5729           0      1902.441772   -887.121765  -17426.83007    126.932877
    5730           0      1902.441772   -887.121765  -17782.92773    129.373489
    5731           0      1902.441772   -887.121765  -18139.02539    131.371048
    5732           0      1902.441772   -887.121765  -18495.12304    132.814087
    5733           0      1902.441772   -887.121765  -18851.22070    133.745361
    5734           0      1902.441772   -887.121765  -19207.31835    134.447128
    5735           0      1902.441772   -887.121765  -19563.41796    134.696625
    5736           0      1902.441772   -887.121765  -19919.51367    134.888916
    5737           0      1902.441772   -887.121765  -20275.61132    134.722290
    5738           0      1902.441772   -887.121765  -20631.70898    134.583298
    5739           0      1902.441772   -887.121765  -20987.80664    134.166168
    5740           0      1902.441772   -887.121765  -21343.90234    133.811035
    5741           0      1902.441772   -887.121765  -21700.00000    133.224243
    5742           0      1902.441772   -887.121765  -22056.09765    132.702484
    5743           0      1902.441772   -887.121765  -22412.19726    131.950562
    5744           0      1902.441772   -887.121765  -22768.29492    131.242035
    5745           0      1902.441772   -887.121765  -23124.39062    130.253189
    5746           0      1902.441772   -887.121765  -23480.48828    129.257858
    5747           0      1902.441772   -887.121765  -23836.58789    127.875084
    5748           0      1902.441772   -887.121765  -24192.68554    126.392471
    5749           0      1902.441772   -887.121765  -24548.78125    124.356178
    5750           0      1902.441772   -887.121765  -24904.87890    122.048615
    5751           0      1902.441772   -887.121765  -25260.97460    118.968925
    5752           0      1902.441772   -887.121765  -25617.07226    115.295433
    5753           0      1902.441772   -887.121765  -25973.17187    110.604462
    5754           0      1902.441772   -887.121765  -26329.26953    104.690163
    5755           0      1902.441772   -887.121765  -26685.36914     97.547523
    5756           0      1902.441772   -887.121765  -27041.46484     88.010010
    5757           0      1902.441772   -887.121765  -27397.56250     77.373253
    5758           0      1902.441772   -887.121765  -27753.66015     64.027924
    5759           0      1902.441772   -887.121765  -28109.75781     58.827850
    5760           0      1902.441772   -887.121765  -28465.85351     74.443741
    5761           0      1902.441772   -887.121765  -28821.94921     85.643112
    5762           0      1950.804565   -775.003784  -14578.05078    107.376938
    5763           0      1950.804565   -775.003784  -14934.14843    133.000275
    5764           0      1950.804565   -775.003784  -15290.24609    149.492615
    5765           0      1950.804565   -775.003784  -15646.34277    146.099243
    5766           0      1950.804565   -775.003784  -16002.44140    151.071503
    5767           0      1950.804565   -775.003784  -16358.53808    148.477722
    5768           0      1950.804688   -775.003784  -16714.63671    148.322647
    5769           0      1950.804688   -775.003784  -17070.73437    145.074005
    5770           0      1950.804688   -775.003784  -17426.83203    143.223877
    5771           0      1950.804688   -775.003784  -17782.92968    139.659042
    5772           0      1950.804688   -775.003784  -18139.02539    137.087952
    5773           0      1950.804688   -775.003784  -18495.12304    133.528458
    5774           0      1950.804688   -775.003784  -18851.22070    130.734253
    5775           0      1950.804688   -775.003784  -19207.31835    127.432709
    5776           0      1950.804688   -775.003784  -19563.41796    124.754799
    5777           0      1950.804688   -775.003784  -19919.51562    121.904396
    5778           0      1950.804688   -775.003784  -20275.61132    119.585304
    5779           0      1950.804688   -775.003784  -20631.70898    117.323334
    5780           0      1950.804688   -775.003784  -20987.80664    115.530518
    5781           0      1950.804688   -775.003784  -21343.90234    113.944183
    5782           0      1950.804688   -775.003784  -21700.00000    112.783943
    5783           0      1950.804688   -775.003784  -22056.09765    111.914452
    5784           0      1950.804688   -775.003784  -22412.19726    111.438934
    5785           0      1950.804688   -775.003784  -22768.29296    111.279694
    5786           0      1950.804688   -775.003784  -23124.39062    111.485664
    5787           0      1950.804688   -775.003784  -23480.48828    111.973770
    5788           0      1950.804688   -775.003784  -23836.58789    112.793060
    5789           0      1950.804688   -775.003784  -24192.68359    113.795830
    5790           0      1950.804688   -775.003784  -24548.78125    115.078773
    5791           0      1950.804688   -775.003784  -24904.87890    116.378906
    5792           0      1950.804688   -775.003784  -25260.97656    117.870697
    5793           0      1950.804688   -775.003784  -25617.07421    119.150749
    5794           0      1950.804688   -775.003784  -25973.17187    120.450439
    5795           0      1950.804688   -775.003784  -26329.26953    121.244461
    5796           0      1950.804688   -775.003784  -26685.36914    121.692749
    5797           0      1950.804688   -775.003784  -27041.46484    121.065468
    5798           0      1950.804688   -775.003784  -27397.56250    119.500061
    5799           0      1950.804688   -775.003784  -27753.66015    113.683022
    5800           0      1950.804688   -775.003784  -28109.75781    110.158142
    5801           0      1950.804688   -775.003784  -28465.85351     87.739494
    5802           0      1950.804688   -775.003784  -28821.95312     71.291519
    5803           0      1992.908203   -659.120605  -14578.05078    182.343018
    5804           0      1992.908203   -659.120605  -14934.14843    234.261475
    5805           0      1992.908203   -659.120605  -15290.24609    216.353745
    5806           0      1992.908203   -659.120605  -15646.34277    197.827423
    5807           0      1992.908203   -659.120605  -16002.44140    185.678513
    5808           0      1992.908203   -659.120605  -16358.53808    171.883316
    5809           0      1992.908203   -659.120605  -16714.63671    160.278580
    5810           0      1992.908203   -659.120605  -17070.73437    149.448151
    5811           0      1992.908203   -659.120605  -17426.83203    139.075470
    5812           0      1992.908203   -659.120605  -17782.92968    129.818909
    5813           0      1992.908203   -659.120605  -18139.02539    120.740486
    5814           0      1992.908203   -659.120605  -18495.12304    112.666832
    5815           0      1992.908203   -659.120605  -18851.22070    104.889999
    5816           0      1992.908203   -659.120605  -19207.31835     97.971100
    5817           0      1992.908203   -659.120605  -19563.41796     91.525139
    5818           0      1992.908203   -659.120605  -19919.51562     85.829529
    5819           0      1992.908203   -659.120605  -20275.61132     80.756485
    5820           0      1992.908203   -659.120605  -20631.70898     76.374023
    5821           0      1992.908203   -659.120605  -20987.80664     72.737419
    5822           0      1992.908203   -659.120605  -21343.90429     69.780624
    5823           0      1992.908203   -659.120605  -21700.00195     67.682381
    5824           0      1992.908203   -659.120605  -22056.09765     66.297562
    5825           0      1992.908203   -659.120605  -22412.19726     65.870911
    5826           0      1992.908203   -659.120605  -22768.29296     66.216019
    5827           0      1992.908203   -659.120605  -23124.39062     67.574318
    5828           0      1992.908203   -659.120605  -23480.48828     69.760780
    5829           0      1992.908203   -659.120605  -23836.58789     72.931564
    5830           0      1992.908203   -659.120605  -24192.68359     76.981880
    5831           0      1992.908203   -659.120605  -24548.78125     81.888733
    5832           0      1992.908203   -659.120605  -24904.87890     87.757256
    5833           0      1992.908203   -659.120605  -25260.97656     94.273430
    5834           0      1992.908203   -659.120605  -25617.07421    101.916519
    5835           0      1992.908203   -659.120605  -25973.17187    109.989105
    5836           0      1992.908203   -659.120605  -26329.26953    119.436836
    5837           0      1992.908203   -659.120605  -26685.36718    129.350479
    5838           0      1992.908203   -659.120605  -27041.46484    140.626190
    5839           0      1992.908203   -659.120605  -27397.56250    153.600494
    5840           0      1992.908203   -659.120605  -27753.66015    165.821594
    5841           0      1992.908203   -659.120605  -28109.75781    183.625595
    5842           0      1992.908203   -659.120605  -28465.85546    199.349716
    5843           0      1992.908203   -659.120605  -28821.95312    139.246613
    5844           0      2028.065308   -541.565674   -180.003326    202.025040
    5845           0      2028.065308   -541.565674   -540.003357    239.131332
    5846           0      2028.065308   -541.565674   -900.003418    198.811417
    5847           0      2028.065308   -541.565674  -1260.003418    184.207535
    5848           0      2028.065308   -541.565674  -1620.003418    159.523285
    5849           0      2028.065308   -541.565674  -1980.003540    145.928223
    5850           0      2028.065308   -541.565674  -2340.003906    127.466064
    5851           0      2028.065308   -541.565674  -2700.003906    115.825546
    5852           0      2028.065308   -541.565674  -3060.003418    101.466629
    5853           0      2028.065308   -541.565674  -3420.003906     91.560936
    5854           0      2028.065308   -541.565674  -3780.003906     80.356537
    5855           0      2028.065308   -541.565674  -4140.003906     72.345184
    5856           0      2028.065308   -541.565674  -4500.003906     64.031898
    5857           0      2028.065308   -541.565674  -4860.003906     58.269482
    5858           0      2028.065308   -541.565674  -5220.003906     52.942326
    5859           0      2028.065308   -541.565674  -5580.003906     49.802750
    5860           0      2028.065308   -541.565674  -5940.003906     47.571293
    5861           0      2028.065308   -541.565674  -6300.003906     47.135902
    5862           0      2028.065308   -541.565674  -6660.003906     47.725697
    5863           0      2028.065308   -541.565674  -7020.003906     49.585049
    5864           0      2028.065308   -541.565674  -7380.003906     52.376511
    5865           0      2028.065308   -541.565674  -7740.003906     55.967476
    5866           0      2028.065308   -541.565674  -8100.003418     60.458504
    5867           0      2028.065308   -541.565674  -8460.003906     65.447968
    5868           0      2028.065308   -541.565674  -8820.003906     71.450943
    5869           0      2028.065308   -541.565674  -9180.003906     77.749237
    5870           0      2028.065308   -541.565674  -9540.003906     85.280014
    5871           0      2028.065308   -541.565674  -9900.003906     92.897644
    5872           0      2028.065308   -541.565674  -10260.00390    102.024834
    5873           0      2028.065308   -541.565674  -10620.00390    110.973381
    5874           0      2028.065308   -541.565674  -10980.00390    121.734680
    5875           0      2028.065308   -541.565674  -11340.00390    132.048019
    5876           0      2028.065308   -541.565674  -11700.00390    144.442749
    5877           0      2028.065308   -541.565674  -12060.00390    156.399887
    5878           0      2028.065308   -541.565674  -12420.00390    170.402115
    5879           0      2028.065308   -541.565674  -12780.00390    185.075729
    5880           0      2028.065308   -541.565674  -13140.00390    200.419159
    5881           0      2028.065308   -541.565674  -13500.00390    219.026474
    5882           0      2028.065308   -541.565674  -13860.00390    241.954010
    5883           0      2028.065308   -541.565674  -14220.00293    191.137497
    5884           0      2055.883057   -423.895721   -180.003326    105.134323
    5885           0      2055.883057   -423.895721   -540.003357    125.751076
    5886           0      2055.883057   -423.895721   -900.003418    131.802048
    5887           0      2055.883057   -423.895721  -1260.003418    134.307388
    5888           0      2055.883057   -423.895721  -1620.003418    133.761826
    5889           0      2055.883057   -423.895721  -1980.003540    131.617569
    5890           0      2055.883057   -423.895721  -2340.003906    128.573029
    5891           0      2055.883057   -423.895721  -2700.003906    124.691605
    5892           0      2055.883057   -423.895721  -3060.003418    121.149734
    5893           0      2055.883057   -423.895721  -3420.003906    117.104149
    5894           0      2055.883057   -423.895721  -3780.003906    113.651939
    5895           0      2055.883057   -423.895721  -4140.003906    110.130936
    5896           0      2055.883057   -423.895721  -4500.003906    107.173759
    5897           0      2055.883057   -423.895721  -4860.003906    104.539696
    5898           0      2055.883057   -423.895721  -5220.003906    102.389290
    5899           0      2055.883057   -423.895721  -5580.003906    100.850578
    5900           0      2055.883057   -423.895721  -5940.003906     99.715790
    5901           0      2055.883057   -423.895721  -6300.003906     99.372864
    5902           0      2055.883057   -423.895721  -6660.003906     99.354675
    5903           0      2055.883057   -423.895721  -7020.003906    100.218971
    5904           0      2055.883057   -423.895721  -7380.003906    101.318947
    5905           0      2055.883057   -423.895721  -7740.003906    103.331665
    5906           0      2055.883057   -423.895721  -8100.003418    105.470367
    5907           0      2055.883057   -423.895721  -8460.003906    108.521996
    5908           0      2055.883057   -423.895721  -8820.003906    111.557213
    5909           0      2055.883057   -423.895721  -9180.003906    115.500214
    5910           0      2055.883057   -423.895721  -9540.003906    119.234642
    5911           0      2055.883057   -423.895721  -9900.003906    123.884834
    5912           0      2055.883057   -423.895721  -10260.00390    128.059402
    5913           0      2055.883057   -423.895721  -10620.00390    133.191589
    5914           0      2055.883057   -423.895721  -10980.00390    137.466354
    5915           0      2055.883057   -423.895721  -11340.00390    142.817871
    5916           0      2055.883057   -423.895721  -11700.00390    146.723328
    5917           0      2055.883057   -423.895721  -12060.00390    152.009750
    5918           0      2055.883057   -423.895721  -12420.00390    154.721161
    5919           0      2055.883057   -423.895721  -12780.00390    159.691910
    5920           0      2055.883057   -423.895721  -13140.00390    158.684937
    5921           0      2055.883057   -423.895721  -13500.00390    164.225113
    5922           0      2055.883057   -423.895721  -13860.00390    158.853424
    5923           0      2055.883057   -423.895721  -14220.00390    132.275452
    5924           0      2076.948730   -304.226929   -180.003326    122.800003
    5925           0      2076.948730   -304.226929   -540.003357    106.318405
    5926           0      2076.948730   -304.226929   -900.003418     81.872231
    5927           0      2076.948730   -304.226929  -1260.003418     82.051628
    5928           0      2076.948730   -304.226929  -1620.003418     91.482033
    5929           0      2076.948730   -304.226929  -1980.003540     98.185875
    5930           0      2076.948730   -304.226929  -2340.003906    105.055443
    5931           0      2076.948730   -304.226929  -2700.003906    109.758560
    5932           0      2076.948730   -304.226929  -3060.003418    113.623741
    5933           0      2076.948730   -304.226929  -3420.003418    116.599083
    5934           0      2076.948730   -304.226929  -3780.003418    118.708435
    5935           0      2076.948730   -304.226929  -4140.003906    120.528175
    5936           0      2076.948730   -304.226929  -4500.003906    121.706947
    5937           0      2076.948730   -304.226929  -4860.003906    122.826111
    5938           0      2076.948730   -304.226929  -5220.003906    123.573524
    5939           0      2076.948730   -304.226929  -5580.003906    124.326180
    5940           0      2076.948730   -304.226929  -5940.003906    124.942078
    5941           0      2076.948730   -304.226929  -6300.003906    125.555794
    5942           0      2076.948730   -304.226929  -6660.003906    126.208649
    5943           0      2076.948730   -304.226929  -7020.003906    126.818298
    5944           0      2076.948730   -304.226929  -7380.003906    127.579987
    5945           0      2076.948730   -304.226929  -7740.003906    128.239639
    5946           0      2076.948730   -304.226929  -8100.003906    129.102509
    5947           0      2076.948730   -304.226929  -8460.003906    129.795013
    5948           0      2076.948730   -304.226929  -8820.003906    130.677795
    5949           0      2076.948730   -304.226929  -9180.003906    131.324020
    5950           0      2076.948730   -304.226929  -9540.003906    132.071625
    5951           0      2076.948730   -304.226929  -9900.003906    132.545654
    5952           0      2076.948730   -304.226929  -10260.00390    132.929581
    5953           0      2076.948730   -304.226929  -10620.00390    133.092316
    5954           0      2076.948730   -304.226929  -10980.00390    132.824814
    5955           0      2076.948730   -304.226929  -11340.00390    132.598404
    5956           0      2076.948730   -304.226929  -11700.00390    131.399414
    5957           0      2076.948730   -304.226929  -12060.00390    130.931458
    5958           0      2076.948730   -304.226929  -12420.00390    128.855225
    5959           0      2076.948730   -304.226929  -12780.00390    129.095764
    5960           0      2076.948730   -304.226929  -13140.00390    128.396408
    5961           0      2076.948730   -304.226929  -13500.00390    136.066360
    5962           0      2076.948730   -304.226929  -13860.00390    151.905975
    5963           0      2076.948730   -304.226929  -14220.00390    151.736572
    5964           0      2091.124268   -182.948318   -180.003326    129.660416
    5965           0      2091.124268   -182.948318   -540.003357    121.705452
    5966           0      2091.124268   -182.948318   -900.003418     83.208893
    5967           0      2091.124268   -182.948318  -1260.003418     60.985512
    5968           0      2091.124268   -182.948318  -1620.003418     53.758923
    5969           0      2091.124268   -182.948318  -1980.003418     60.267742
    5970           0      2091.124268   -182.948318  -2340.003418     69.954567
    5971           0      2091.124268   -182.948318  -2700.003418     80.415237
    5972           0      2091.124268   -182.948318  -3060.003418     89.619171
    5973           0      2091.124268   -182.948318  -3420.003418     97.730522
    5974           0      2091.124268   -182.948318  -3780.003662    104.673317
    5975           0      2091.124268   -182.948318  -4140.003418    110.453659
    5976           0      2091.124268   -182.948318  -4500.003906    115.442795
    5977           0      2091.124268   -182.948318  -4860.003906    119.435516
    5978           0      2091.124268   -182.948318  -5220.003906    122.888245
    5979           0      2091.124268   -182.948318  -5580.003418    125.534157
    5980           0      2091.124268   -182.948318  -5940.003418    127.773895
    5981           0      2091.124268   -182.948318  -6300.003906    129.372681
    5982           0      2091.124268   -182.948318  -6660.003906    130.620667
    5983           0      2091.124268   -182.948318  -7020.003906    131.354309
    5984           0      2091.124268   -182.948318  -7380.003418    131.743286
    5985           0      2091.124268   -182.948318  -7740.003906    131.700180
    5986           0      2091.124268   -182.948318  -8100.003906    131.289703
    5987           0      2091.124268   -182.948318  -8460.003906    130.485260
    5988           0      2091.124268   -182.948318  -8820.003906    129.280090
    5989           0      2091.124268   -182.948318  -9180.003906    127.682014
    5990           0      2091.124268   -182.948318  -9540.002930    125.664009
    5991           0      2091.124268   -182.948318  -9900.003906    123.241234
    5992           0      2091.124268   -182.948318  -10260.00390    120.441833
    5993           0      2091.124268   -182.948318  -10620.00390    117.281319
    5994           0      2091.124268   -182.948318  -10980.00390    113.963264
    5995           0      2091.124268   -182.948318  -11340.00390    110.566582
    5996           0      2091.124268   -182.948318  -11700.00390    107.713089
    5997           0      2091.124268   -182.948318  -12060.00390    105.744469
    5998           0      2091.124268   -182.948318  -12420.00390    106.384384
    5999           0      2091.124268   -182.948318  -12780.00390    110.057938
    6000           0      2091.124268   -182.948318  -13140.00390    121.998619
    6001           0      2091.124268   -182.948318  -13500.00390    136.923080
    6002           0      2091.124268   -182.948318  -13860.00390    163.235687
    6003           0      2091.124268   -182.948318  -14220.00390    164.041534
    6004           0      2098.223877    -61.050758   -180.003326    123.785355
    6005           0      2098.223877    -61.050758   -540.003357    123.579643
    6006           0      2098.223877    -61.050758   -900.003418     96.087654
    6007           0      2098.223877    -61.050758  -1260.003418     72.226700
    6008           0      2098.223877    -61.050758  -1620.003418     47.675320
    6009           0      2098.223877    -61.050758  -1980.003540     35.203049
    6010           0      2098.223877    -61.050758  -2340.003662     36.599659
    6011           0      2098.223877    -61.050758  -2700.003662     46.211266
    6012           0      2098.223877    -61.050758  -3060.003418     57.988953
    6013           0      2098.223877    -61.050758  -3420.003906     69.061806
    6014           0      2098.223877    -61.050758  -3780.003906     79.077385
    6015           0      2098.223877    -61.050758  -4140.003906     87.776146
    6016           0      2098.223877    -61.050758  -4500.003906     95.223015
    6017           0      2098.223877    -61.050758  -4860.003906    101.549957
    6018           0      2098.223877    -61.050758  -5220.003906    106.741707
    6019           0      2098.223877    -61.050758  -5580.003906    111.016426
    6020           0      2098.223877    -61.050758  -5940.003418    114.292473
    6021           0      2098.223877    -61.050758  -6300.003906    116.789398
    6022           0      2098.223877    -61.050758  -6660.003906    118.400513
    6023           0      2098.223877    -61.050758  -7020.003906    119.313553
    6024           0      2098.223877    -61.050758  -7380.003906    119.424210
    6025           0      2098.223877    -61.050758  -7740.003906    118.879539
    6026           0      2098.223877    -61.050758  -8100.003418    117.591881
    6027           0      2098.223877    -61.050758  -8460.003906    115.677551
    6028           0      2098.223877    -61.050758  -8820.003906    113.073975
    6029           0      2098.223877    -61.050758  -9180.003906    109.898972
    6030           0      2098.223877    -61.050758  -9540.003906    106.130341
    6031           0      2098.223877    -61.050758  -9900.003906    101.959198
    6032           0      2098.223877    -61.050758  -10260.00390     97.454193
    6033           0      2098.223877    -61.050758  -10620.00390     93.035263
    6034           0      2098.223877    -61.050758  -10980.00390     89.006737
    6035           0      2098.223877    -61.050758  -11340.00390     86.302025
    6036           0      2098.223877    -61.050758  -11700.00390     85.700012
    6037           0      2098.223877    -61.050758  -12060.00390     88.668121
    6038           0      2098.223877    -61.050758  -12420.00390     96.270264
    6039           0      2098.223877    -61.050758  -12780.00390    108.705589
    6040           0      2098.223877    -61.050758  -13140.00390    127.809158
    6041           0      2098.223877    -61.050758  -13500.00390    143.393692
    6042           0      2098.223877    -61.050758  -13860.00390    168.612228
    6043           0      2098.223877    -61.051079  -14220.00293    166.142868
    6044           0      2098.223633     61.052742   -180.003326    111.549309
    6045           0      2098.223633     61.052742   -540.003357    114.436790
    6046           0      2098.223633     61.052742   -900.003418     96.645088
    6047           0      2098.223633     61.052742  -1260.003418     81.867783
    6048           0      2098.223633     61.052742  -1620.003418     60.437584
    6049           0      2098.223633     61.052742  -1980.003540     40.355103
    6050           0      2098.223633     61.052746  -2340.003906     24.617542
    6051           0      2098.223633     61.052750  -2700.003906     19.044939
    6052           0      2098.223633     61.052750  -3060.003418     26.768398
    6053           0      2098.223633     61.052750  -3420.003418     38.126190
    6054           0      2098.223633     61.052750  -3780.003418     49.282795
    6055           0      2098.223633     61.052750  -4140.003906     59.324257
    6056           0      2098.223633     61.052750  -4500.003906     68.094482
    6057           0      2098.223633     61.052750  -4860.003906     75.568146
    6058           0      2098.223633     61.052750  -5220.003906     81.833450
    6059           0      2098.223633     61.052750  -5580.003906     86.889442
    6060           0      2098.223633     61.052750  -5940.003906     90.871185
    6061           0      2098.223633     61.052750  -6300.003906     93.741745
    6062           0      2098.223633     61.052750  -6660.003906     95.649643
    6063           0      2098.223633     61.052750  -7020.003906     96.528816
    6064           0      2098.223633     61.052750  -7380.003906     96.532509
    6065           0      2098.223633     61.052757  -7740.003906     95.581345
    6066           0      2098.223633     61.052757  -8100.003906     93.839569
    6067           0      2098.223633     61.052757  -8460.003906     91.237007
    6068           0      2098.223633     61.052757  -8820.003906     87.977295
    6069           0      2098.223633     61.052757  -9180.003906     84.045296
    6070           0      2098.223633     61.052757  -9540.003906     79.758217
    6071           0      2098.223633     61.052757  -9900.003906     75.271355
    6072           0      2098.223633     61.052757  -10260.00390     71.181557
    6073           0      2098.223633     61.052757  -10620.00390     68.058517
    6074           0      2098.223633     61.052757  -10980.00390     66.943604
    6075           0      2098.223633     61.052757  -11340.00390     68.834908
    6076           0      2098.223633     61.052757  -11700.00390     74.527237
    6077           0      2098.223633     61.052757  -12060.00390     84.352715
    6078           0      2098.223633     61.052757  -12420.00390     97.910789
    6079           0      2098.223633     61.052757  -12780.00390    114.046600
    6080           0      2098.223633     61.052757  -13140.00390    132.213760
    6081           0      2098.223633     61.052757  -13500.00390    144.844604
    6082           0      2098.223633     61.052757  -13860.00390    166.352737
    6083           0      2098.223633     61.052429  -14220.00293    161.907364
    6084           0      2091.123779    182.949707   -180.003326     96.301208
    6085           0      2091.123779    182.949707   -540.003357     99.758781
    6086           0      2091.123779    182.949707   -900.003418     87.884003
    6087           0      2091.123779    182.949722  -1260.003418     80.450554
    6088           0      2091.123779    182.949738  -1620.003418     67.426125
    6089           0      2091.123779    182.949738  -1980.003418     52.502975
    6090           0      2091.123779    182.949738  -2340.003418     37.443382
    6091           0      2091.123779    182.949738  -2700.003418     23.576788
    6092           0      2091.123779    182.949738  -3060.003418     14.011168
    6093           0      2091.123779    182.949738  -3420.003418     14.854435
    6094           0      2091.123779    182.949738  -3780.003662     23.127958
    6095           0      2091.123779    182.949738  -4140.003418     32.246216
    6096           0      2091.123779    182.949738  -4500.003906     40.677692
    6097           0      2091.123779    182.949738  -4860.003906     48.050751
    6098           0      2091.123779    182.949738  -5220.003906     54.290596
    6099           0      2091.123779    182.949738  -5580.003418     59.390194
    6100           0      2091.123779    182.949753  -5940.003418     63.357178
    6101           0      2091.123779    182.949753  -6300.003906     66.243347
    6102           0      2091.123779    182.949753  -6660.003906     68.052490
    6103           0      2091.123779    182.949753  -7020.003906     68.865257
    6104           0      2091.123779    182.949753  -7380.003418     68.679901
    6105           0      2091.123779    182.949768  -7740.003906     67.609863
    6106           0      2091.123779    182.949768  -8100.003906     65.674728
    6107           0      2091.123779    182.949768  -8460.003906     63.051266
    6108           0      2091.123779    182.949768  -8820.003906     59.852013
    6109           0      2091.123779    182.949768  -9180.003906     56.407337
    6110           0      2091.123779    182.949768  -9540.002930     53.093204
    6111           0      2091.123779    182.949768  -9900.003906     50.581398
    6112           0      2091.123779    182.949768  -10260.00390     49.706234
    6113           0      2091.123779    182.949768  -10620.00390     51.359402
    6114           0      2091.123779    182.949768  -10980.00390     56.166634
    6115           0      2091.123779    182.949783  -11340.00390     64.163086
    6116           0      2091.123779    182.949783  -11700.00390     74.975983
    6117           0      2091.123779    182.949799  -12060.00390     87.953079
    6118           0      2091.123779    182.949799  -12420.00390    102.418411
    6119           0      2091.123779    182.949799  -12780.00390    116.794044
    6120           0      2091.123779    182.949799  -13140.00390    131.261200
    6121           0      2091.123779    182.949799  -13500.00390    140.827728
    6122           0      2091.123779    182.949799  -13860.00390    158.954498
    6123           0      2091.123779    182.949753  -14220.00293    153.799316
    6124           0      2076.948242    304.228210   -180.003326     79.806458
    6125           0      2076.948242    304.228210   -540.003357     82.901794
    6126           0      2076.948242    304.228210   -900.003418     74.739006
    6127           0      2076.948242    304.228210  -1260.003418     71.447578
    6128           0      2076.948242    304.228210  -1620.003418     65.240700
    6129           0      2076.948242    304.228210  -1980.003540     57.260090
    6130           0      2076.948242    304.228210  -2340.003662     47.918430
    6131           0      2076.948242    304.228210  -2700.003662     38.329556
    6132           0      2076.948242    304.228210  -3060.003418     29.620958
    6133           0      2076.948242    304.228210  -3420.003906     22.809298
    6134           0      2076.948242    304.228210  -3780.003906     19.422363
    6135           0      2076.948242    304.228210  -4140.003906     20.066994
    6136           0      2076.948242    304.228210  -4500.003906     23.463741
    6137           0      2076.948242    304.228210  -4860.003906     27.797472
    6138           0      2076.948242    304.228210  -5220.003906     32.072525
    6139           0      2076.948242    304.228210  -5580.003906     35.800518
    6140           0      2076.948242    304.228241  -5940.003418     38.798424
    6141           0      2076.948242    304.228271  -6300.003906     40.957176
    6142           0      2076.948242    304.228271  -6660.003906     42.275833
    6143           0      2076.948242    304.228271  -7020.003906     42.744896
    6144           0      2076.948242    304.228271  -7380.003906     42.444511
    6145           0      2076.948242    304.228271  -7740.003906     41.439758
    6146           0      2076.948242    304.228271  -8100.003418     39.920681
    6147           0      2076.948242    304.228271  -8460.003906     38.102413
    6148           0      2076.948242    304.228271  -8820.003906     36.409260
    6149           0      2076.948242    304.228271  -9180.003906     35.363304
    6150           0      2076.948242    304.228271  -9540.003906     35.695442
    6151           0      2076.948242    304.228271  -9900.003906     38.012718
    6152           0      2076.948242    304.228271  -10260.00390     42.666245
    6153           0      2076.948242    304.228271  -10620.00390     49.566196
    6154           0      2076.948242    304.228271  -10980.00390     58.383018
    6155           0      2076.948242    304.228271  -11340.00390     68.730164
    6156           0      2076.948242    304.228271  -11700.00390     80.096565
    6157           0      2076.948242    304.228271  -12060.00390     92.085625
    6158           0      2076.948242    304.228271  -12420.00390    104.021385
    6159           0      2076.948242    304.228271  -12780.00390    115.008095
    6160           0      2076.948242    304.228271  -13140.00390    125.916794
    6161           0      2076.948242    304.228271  -13500.00390    133.261902
    6162           0      2076.948242    304.228271  -13860.00390    148.652832
    6163           0      2076.948242    304.228241  -14220.00293    143.453903
    6164           0      2055.745117    424.477325   -180.003326     63.195843
    6165           0      2055.745117    424.477325   -540.003357     65.824890
    6166           0      2055.745117    424.477325   -900.003418     60.427162
    6167           0      2055.745117    424.477325  -1260.003418     59.228970
    6168           0      2055.745117    424.477325  -1620.003418     57.219162
    6169           0      2055.745117    424.477325  -1980.003540     54.628342
    6170           0      2055.745117    424.477325  -2340.003906     50.884056
    6171           0      2055.745117    424.477325  -2700.003906     46.359539
    6172           0      2055.745117    424.477325  -3060.003418     41.700253
    6173           0      2055.745117    424.477325  -3420.003418     37.337986
    6174           0      2055.745117    424.477325  -3780.003418     33.683048
    6175           0      2055.745117    424.477325  -4140.003906     30.993784
    6176           0      2055.745117    424.477325  -4500.003906     29.347675
    6177           0      2055.745117    424.477325  -4860.003906     28.637478
    6178           0      2055.745117    424.477325  -5220.003906     28.601879
    6179           0      2055.745117    424.477325  -5580.003906     28.939774
    6180           0      2055.745117    424.477325  -5940.003906     29.374725
    6181           0      2055.745117    424.477325  -6300.003906     29.718742
    6182           0      2055.745117    424.477325  -6660.003906     29.854385
    6183           0      2055.745117    424.477325  -7020.003906     29.768612
    6184           0      2055.745117    424.477325  -7380.003906     29.509945
    6185           0      2055.745117    424.477325  -7740.003906     29.245474
    6186           0      2055.745117    424.477325  -8100.003906     29.206917
    6187           0      2055.745117    424.477325  -8460.003906     29.741488
    6188           0      2055.745117    424.477325  -8820.003906     31.192543
    6189           0      2055.745117    424.477325  -9180.003906     33.869373
    6190           0      2055.745117    424.477325  -9540.003906     37.909332
    6191           0      2055.745117    424.477325  -9900.003906     43.304317
    6192           0      2055.745117    424.477325  -10260.00390     49.920395
    6193           0      2055.745117    424.477325  -10620.00390     57.564510
    6194           0      2055.745117    424.477325  -10980.00390     66.001373
    6195           0      2055.745117    424.477325  -11340.00390     74.987526
    6196           0      2055.745117    424.477325  -11700.00390     84.186020
    6197           0      2055.745117    424.477325  -12060.00390     93.334343
    6198           0      2055.745117    424.477325  -12420.00390    101.996185
    6199           0      2055.745117    424.477325  -12780.00390    109.955650
    6200           0      2055.745117    424.477325  -13140.00390    118.190422
    6201           0      2055.745117    424.477325  -13500.00390    123.979362
    6202           0      2055.745117    424.477325  -13860.00390    137.113983
    6203           0      2055.745117    424.477325  -14220.00293    131.952927
    6204           0      2027.586060    543.290161   -180.003326     47.502949
    6205           0      2027.586060    543.290161   -540.003357     49.756042
    6206           0      2027.586060    543.290161   -900.003418     46.846619
    6207           0      2027.586060    543.290161  -1260.003418     46.772072
    6208           0      2027.586060    543.290161  -1620.003418     47.047771
    6209           0      2027.586060    543.290161  -1980.003418     47.674763
    6210           0      2027.586060    543.290161  -2340.003418     48.001369
    6211           0      2027.586060    543.290161  -2700.003418     47.676975
    6212           0      2027.586060    543.290161  -3060.003418     46.886894
    6213           0      2027.586060    543.290161  -3420.003418     45.780998
    6214           0      2027.586060    543.290161  -3780.003662     44.544025
    6215           0      2027.586060    543.290161  -4140.003418     43.315647
    6216           0      2027.586060    543.290222  -4500.003906     42.187260
    6217           0      2027.586060    543.290222  -4860.003906     41.203796
    6218           0      2027.586060    543.290222  -5220.003906     40.376152
    6219           0      2027.586060    543.290222  -5580.003418     39.690407
    6220           0      2027.586060    543.290222  -5940.003418     39.132130
    6221           0      2027.586060    543.290222  -6300.003906     38.691986
    6222           0      2027.586060    543.290222  -6660.003906     38.386353
    6223           0      2027.586060    543.290222  -7020.003906     38.257393
    6224           0      2027.586060    543.290222  -7380.003418     38.383221
    6225           0      2027.586060    543.290222  -7740.003906     38.869995
    6226           0      2027.586060    543.290222  -8100.003906     39.844967
    6227           0      2027.586060    543.290222  -8460.003906     41.435505
    6228           0      2027.586060    543.290222  -8820.003906     43.747902
    6229           0      2027.586060    543.290222  -9180.003906     46.845177
    6230           0      2027.586060    543.290222  -9540.002930     50.738758
    6231           0      2027.586060    543.290283  -9900.003906     55.382965
    6232           0      2027.586060    543.290283  -10260.00390     60.688896
    6233           0      2027.586060    543.290283  -10620.00390     66.526649
    6234           0      2027.586060    543.290283  -10980.00390     72.730873
    6235           0      2027.586060    543.290283  -11340.00390     79.137367
    6236           0      2027.586060    543.290283  -11700.00390     85.512749
    6237           0      2027.586060    543.290283  -12060.00390     91.756813
    6238           0      2027.586060    543.290283  -12420.00390     97.682381
    6239           0      2027.586060    543.290283  -12780.00390    103.460129
    6240           0      2027.586060    543.290283  -13140.00390    109.736855
    6241           0      2027.586060    543.290283  -13500.00390    114.396187
    6242           0      2027.586060    543.290283  -13860.00390    125.441597
    6243           0      2027.586060    543.290222  -14220.00293    120.300415
    6244           0      1992.566162    660.264648   -180.003326     33.832550
    6245           0      1992.566162    660.264648   -540.003357     35.754066
    6246           0      1992.566162    660.264648   -900.003418     35.108521
    6247           0      1992.566162    660.264709  -1260.003418     35.823326
    6248           0      1992.566162    660.264709  -1620.003418     37.250355
    6249           0      1992.566162    660.264709  -1980.003540     39.382317
    6250           0      1992.566162    660.264709  -2340.003662     41.967804
    6251           0      1992.566162    660.264709  -2700.003662     44.404079
    6252           0      1992.566162    660.264709  -3060.003418     46.519436
    6253           0      1992.566162    660.264709  -3420.003906     48.219715
    6254           0      1992.566162    660.264709  -3780.003906     49.514713
    6255           0      1992.566162    660.264709  -4140.003906     50.457977
    6256           0      1992.566162    660.264709  -4500.003906     51.107590
    6257           0      1992.566162    660.264709  -4860.003906     51.536877
    6258           0      1992.566162    660.264709  -5220.003906     51.803173
    6259           0      1992.566162    660.264709  -5580.003906     51.965900
    6260           0      1992.566162    660.264709  -5940.003418     52.075211
    6261           0      1992.566162    660.264709  -6300.003906     52.185776
    6262           0      1992.566162    660.264709  -6660.003906     52.350193
    6263           0      1992.566162    660.264709  -7020.003906     52.629189
    6264           0      1992.566162    660.264709  -7380.003906     53.084110
    6265           0      1992.566162    660.264709  -7740.003906     53.782333
    6266           0      1992.566162    660.264709  -8100.003418     54.786415
    6267           0      1992.566162    660.264709  -8460.003906     56.154976
    6268           0      1992.566162    660.264709  -8820.003906     57.930096
    6269           0      1992.566162    660.264709  -9180.003906     60.136230
    6270           0      1992.566162    660.264709  -9540.003906     62.772297
    6271           0      1992.566162    660.264709  -9900.003906     65.810516
    6272           0      1992.566162    660.264709  -10260.00390     69.199539
    6273           0      1992.566162    660.264709  -10620.00390     72.864937
    6274           0      1992.566162    660.264709  -10980.00390     76.715569
    6275           0      1992.566162    660.264709  -11340.00390     80.676918
    6276           0      1992.566162    660.264709  -11700.00390     84.635681
    6277           0      1992.566162    660.264709  -12060.00390     88.646286
    6278           0      1992.566162    660.264709  -12420.00390     92.657661
    6279           0      1992.566162    660.264709  -12780.00390     96.919151
    6280           0      1992.566162    660.264709  -13140.00390    101.725914
    6281           0      1992.566162    660.264709  -13500.00390    105.423088
    6282           0      1992.566162    660.264709  -13860.00390    114.517487
    6283           0      1992.566162    660.264709  -14220.00293    109.346359
    6284           0      1950.804199    775.005005   -180.003326     23.571775
    6285           0      1950.804199    775.005005   -540.003357     25.034243
    6286           0      1950.804199    775.005005   -900.003418     26.011112
    6287           0      1950.804199    775.005005  -1260.003418     27.272606
    6288           0      1950.804199    775.005005  -1620.003418     29.172716
    6289           0      1950.804199    775.005005  -1980.003540     31.706007
    6290           0      1950.804199    775.005005  -2340.003906     35.079151
    6291           0      1950.804199    775.005005  -2700.003906     38.810307
    6292           0      1950.804199    775.005005  -3060.003418     42.617226
    6293           0      1950.804199    775.005005  -3420.003418     46.220814
    6294           0      1950.804199    775.005005  -3780.003418     49.485268
    6295           0      1950.804199    775.005005  -4140.003906     52.345558
    6296           0      1950.804199    775.005005  -4500.003906     54.787853
    6297           0      1950.804199    775.005005  -4860.003906     56.840542
    6298           0      1950.804199    775.005005  -5220.003906     58.544178
    6299           0      1950.804199    775.005005  -5580.003906     59.953171
    6300           0      1950.804199    775.005005  -5940.003906     61.123459
    6301           0      1950.804199    775.005005  -6300.003906     62.112091
    6302           0      1950.804199    775.005005  -6660.003906     62.974884
    6303           0      1950.804199    775.005005  -7020.003906     63.765793
    6304           0      1950.804199    775.005005  -7380.003906     64.536369
    6305           0      1950.804199    775.005005  -7740.003906     65.334610
    6306           0      1950.804199    775.005005  -8100.003906     66.203835
    6307           0      1950.804199    775.005005  -8460.003906     67.181107
    6308           0      1950.804199    775.005005  -8820.003906     68.295609
    6309           0      1950.804199    775.005005  -9180.003906     69.566681
    6310           0      1950.804199    775.005005  -9540.003906     71.004234
    6311           0      1950.804199    775.005005  -9900.003906     72.606575
    6312           0      1950.804199    775.005005  -10260.00390     74.365715
    6313           0      1950.804199    775.005005  -10620.00390     76.267441
    6314           0      1950.804199    775.005005  -10980.00390     78.296196
    6315           0      1950.804199    775.005005  -11340.00390     80.462151
    6316           0      1950.804199    775.005005  -11700.00390     82.747971
    6317           0      1950.804199    775.005005  -12060.00390     85.293419
    6318           0      1950.804199    775.005005  -12420.00390     88.045052
    6319           0      1950.804199    775.005005  -12780.00390     91.224411
    6320           0      1950.804199    775.005005  -13140.00390     94.857529
    6321           0      1950.804199    775.005005  -13500.00390     97.675911
    6322           0      1950.804199    775.005005  -13860.00390    105.029526
    6323           0      1950.804199    775.005005  -14220.00293     99.799789
    6324           0      1902.441162    887.123047   -180.003326     18.360464
    6325           0      1902.441162    887.123047   -540.003357     19.030321
    6326           0      1902.441162    887.123047   -900.003418     20.166159
    6327           0      1902.441162    887.123047  -1260.003418     21.429319
    6328           0      1902.441162    887.123047  -1620.003418     23.197914
    6329           0      1902.441162    887.123047  -1980.003418     25.494566
    6330           0      1902.441162    887.123047  -2340.003418     28.714005
    6331           0      1902.441162    887.123047  -2700.003418     32.636524
    6332           0      1902.441162    887.123047  -3060.003418     37.045727
    6333           0      1902.441162    887.123047  -3420.003418     41.595249
    6334           0      1902.441162    887.123047  -3780.003662     46.047543
    6335           0      1902.441040    887.123047  -4140.003418     50.231880
    6336           0      1902.441040    887.123047  -4500.003906     54.048161
    6337           0      1902.441040    887.123047  -4860.003906     57.452450
    6338           0      1902.441040    887.123047  -5220.003906     60.434959
    6339           0      1902.441040    887.123047  -5580.003418     63.013458
    6340           0      1902.441040    887.123047  -5940.003418     65.217957
    6341           0      1902.441040    887.123047  -6300.003906     67.087395
    6342           0      1902.441040    887.123047  -6660.003906     68.663315
    6343           0      1902.441040    887.123047  -7020.003906     69.988556
    6344           0      1902.441040    887.123047  -7380.003418     71.104576
    6345           0      1902.441040    887.123047  -7740.003906     72.051277
    6346           0      1902.441040    887.123047  -8100.003906     72.865837
    6347           0      1902.441040    887.123047  -8460.003906     73.583038
    6348           0      1902.441040    887.123047  -8820.003906     74.235001
    6349           0      1902.441040    887.123108  -9180.003906     74.851730
    6350           0      1902.441040    887.123108  -9540.002930     75.462524
    6351           0      1902.441040    887.123108  -9900.003906     76.095779
    6352           0      1902.441040    887.123108  -10260.00390     76.783096
    6353           0      1902.441040    887.123108  -10620.00390     77.559395
    6354           0      1902.441040    887.123108  -10980.00390     78.462341
    6355           0      1902.441040    887.123108  -11340.00390     79.554085
    6356           0      1902.441040    887.123108  -11700.00390     80.864311
    6357           0      1902.441040    887.123108  -12060.00390     82.536125
    6358           0      1902.441040    887.123108  -12420.00390     84.468140
    6359           0      1902.441040    887.123108  -12780.00390     86.838852
    6360           0      1902.441040    887.123108  -13140.00390     89.524704
    6361           0      1902.441040    887.123108  -13500.00390     91.562378
    6362           0      1902.441040    887.123108  -13860.00390     97.484802
    6363           0      1902.441162    887.123108  -14220.00293     92.165756
    6364           0      1847.640869    996.239258   -180.003326     18.155790
    6365           0      1847.640869    996.239258   -540.003357     17.924221
    6366           0      1847.640869    996.239258   -900.003418     17.522081
    6367           0      1847.640869    996.239258  -1260.003418     18.016747
    6368           0      1847.640869    996.239258  -1620.003418     19.024876
    6369           0      1847.640869    996.239258  -1980.003540     20.722462
    6370           0      1847.640869    996.239258  -2340.003662     23.353949
    6371           0      1847.640869    996.239258  -2700.003662     26.870750
    6372           0      1847.640869    996.239258  -3060.003418     31.163553
    6373           0      1847.640869    996.239258  -3420.003906     35.910126
    6374           0      1847.640869    996.239258  -3780.003906     40.834526
    6375           0      1847.640869    996.239258  -4140.003906     45.699326
    6376           0      1847.640869    996.239258  -4500.003906     50.337864
    6377           0      1847.640869    996.239258  -4860.003906     54.641239
    6378           0      1847.640869    996.239258  -5220.003906     58.545208
    6379           0      1847.640869    996.239258  -5580.003906     62.021088
    6380           0      1847.640869    996.239258  -5940.003418     65.062744
    6381           0      1847.640869    996.239258  -6300.003906     67.681175
    6382           0      1847.640869    996.239258  -6660.003906     69.897285
    6383           0      1847.640869    996.239258  -7020.003906     71.738770
    6384           0      1847.640869    996.239258  -7380.003906     73.237328
    6385           0      1847.640869    996.239258  -7740.003906     74.427269
    6386           0      1847.640869    996.239258  -8100.003418     75.344910
    6387           0      1847.640869    996.239258  -8460.003906     76.028519
    6388           0      1847.640869    996.239258  -8820.003906     76.518684
    6389           0      1847.640869    996.239258  -9180.003906     76.858978
    6390           0      1847.640869    996.239258  -9540.003906     77.097023
    6391           0      1847.640869    996.239258  -9900.003906     77.284340
    6392           0      1847.640869    996.239258  -10260.00390     77.478012
    6393           0      1847.640869    996.239258  -10620.00390     77.739563
    6394           0      1847.640869    996.239258  -10980.00390     78.130798
    6395           0      1847.640869    996.239258  -11340.00390     78.730270
    6396           0      1847.640869    996.239258  -11700.00390     79.572678
    6397           0      1847.640869    996.239258  -12060.00390     80.765198
    6398           0      1847.640869    996.239258  -12420.00390     82.174034
    6399           0      1847.640869    996.239258  -12780.00390     83.945869
    6400           0      1847.640869    996.239258  -13140.00390     85.916512
    6401           0      1847.640869    996.239258  -13500.00390     87.318382
    6402           0      1847.640869    996.239258  -13860.00390     92.179680
    6403           0      1847.640869    996.239258  -14220.00293     86.736588
    6404           0      1786.588867   1101.984619   -180.003326     20.008549
    6405           0      1786.588867   1101.984619   -540.003357     19.191046
    6406           0      1786.588867   1101.984619   -900.003418     16.848791
    6407           0      1786.588867   1101.984619  -1260.003418     16.162779
    6408           0      1786.588867   1101.984619  -1620.003418     16.008101
    6409           0      1786.588867   1101.984619  -1980.003540     16.922638
    6410           0      1786.588867   1101.984619  -2340.003906     18.894342
    6411           0      1786.588867   1101.984619  -2700.003906     21.869383
    6412           0      1786.588867   1101.984619  -3060.003418     25.762449
    6413           0      1786.588867   1101.984619  -3420.003418     30.296526
    6414           0      1786.588867   1101.984619  -3780.003418     35.207413
    6415           0      1786.588867   1101.984619  -4140.003906     40.240791
    6416           0      1786.588867   1101.984619  -4500.003906     45.202923
    6417           0      1786.588867   1101.984619  -4860.003906     49.946934
    6418           0      1786.588867   1101.984619  -5220.003906     54.371433
    6419           0      1786.588867   1101.984619  -5580.003906     58.410645
    6420           0      1786.588867   1101.984619  -5940.003906     62.026737
    6421           0      1786.588867   1101.984619  -6300.003906     65.203232
    6422           0      1786.588867   1101.984619  -6660.003906     67.940117
    6423           0      1786.588867   1101.984619  -7020.003906     70.249062
    6424           0      1786.588867   1101.984619  -7380.003906     72.151329
    6425           0      1786.588867   1101.984619  -7740.003906     73.675293
    6426           0      1786.588867   1101.984619  -8100.003906     74.855797
    6427           0      1786.588867   1101.984619  -8460.003906     75.733284
    6428           0      1786.588867   1101.984619  -8820.003906     76.353859
    6429           0      1786.588867   1101.984619  -9180.003906     76.768936
    6430           0      1786.588867   1101.984619  -9540.003906     77.035385
    6431           0      1786.588867   1101.984619  -9900.003906     77.214417
    6432           0      1786.588867   1101.984619  -10260.00390     77.371666
    6433           0      1786.588867   1101.984619  -10620.00390     77.575043
    6434           0      1786.588867   1101.984619  -10980.00390     77.890007
    6435           0      1786.588867   1101.984619  -11340.00390     78.388458
    6436           0      1786.588867   1101.984619  -11700.00390     79.092041
    6437           0      1786.588867   1101.984619  -12060.00390     80.068405
    6438           0      1786.588867   1101.984619  -12420.00390     81.183029
    6439           0      1786.588867   1101.984619  -12780.00390     82.558098
    6440           0      1786.588867   1101.984619  -13140.00390     84.067429
    6441           0      1786.588867   1101.984619  -13500.00390     85.011124
    6442           0      1786.588867   1101.984619  -13860.00390     89.203178
    6443           0      1786.588867   1101.984619  -14220.00293     83.598289
    6444           0      1719.491455   1204.001221   -180.003326     21.472639
    6445           0      1719.491455   1204.001221   -540.003357     20.324833
    6446           0      1719.491455   1204.001221   -900.003418     16.584881
    6447           0      1719.491455   1204.001221  -1260.003418     14.828690
    6448           0      1719.491455   1204.001221  -1620.003418     13.509240
    6449           0      1719.491455   1204.001221  -1980.003418     13.619862
    6450           0      1719.491455   1204.001221  -2340.003418     15.061530
    6451           0      1719.491455   1204.001221  -2700.003418     17.658579
    6452           0      1719.491455   1204.001221  -3060.003418     21.215670
    6453           0      1719.491455   1204.001221  -3420.003418     25.451803
    6454           0      1719.491455   1204.001221  -3780.003662     30.135452
    6455           0      1719.491455   1204.001221  -4140.003418     35.038845
    6456           0      1719.491455   1204.001221  -4500.003906     39.979218
    6457           0      1719.491455   1204.001221  -4860.003906     44.807552
    6458           0      1719.491455   1204.001221  -5220.003906     49.411373
    6459           0      1719.491455   1204.001221  -5580.003418     53.707619
    6460           0      1719.491455   1204.001221  -5940.003418     57.640148
    6461           0      1719.491455   1204.001221  -6300.003906     61.173527
    6462           0      1719.491455   1204.001221  -6660.003906     64.291275
    6463           0      1719.491455   1204.001221  -7020.003906     66.991127
    6464           0      1719.491455   1204.001221  -7380.003418     69.283615
    6465           0      1719.491455   1204.001221  -7740.003906     71.189400
    6466           0      1719.491455   1204.001221  -8100.003906     72.738205
    6467           0      1719.491455   1204.001221  -8460.003906     73.967567
    6468           0      1719.491455   1204.001221  -8820.003906     74.921883
    6469           0      1719.491455   1204.001221  -9180.003906     75.651718
    6470           0      1719.491455   1204.001221  -9540.002930     76.212807
    6471           0      1719.491455   1204.001221  -9900.003906     76.665146
    6472           0      1719.491455   1204.001221  -10260.00390     77.071793
    6473           0      1719.491333   1204.001221  -10620.00390     77.497047
    6474           0      1719.491333   1204.001221  -10980.00390     78.000099
    6475           0      1719.491333   1204.001221  -11340.00390     78.636505
    6476           0      1719.491333   1204.001221  -11700.00390     79.413307
    6477           0      1719.491333   1204.001221  -12060.00390     80.367989
    6478           0      1719.491333   1204.001221  -12420.00390     81.390205
    6479           0      1719.491333   1204.001221  -12780.00390     82.573647
    6480           0      1719.491333   1204.001221  -13140.00390     83.879959
    6481           0      1719.491333   1204.001221  -13500.00390     84.553169
    6482           0      1719.491333   1204.001221  -13860.00390     88.457176
    6483           0      1719.491333   1204.001221  -14220.00293     82.657715
    6484           0      1646.575928   1301.943604   -180.003326     21.694271
    6485           0      1646.575928   1301.943604   -540.003357     20.333296
    6486           0      1646.575928   1301.943604   -900.003418     15.824765
    6487           0      1646.575928   1301.943604  -1260.003418     13.317347
    6488           0      1646.575928   1301.943604  -1620.003418     11.104428
    6489           0      1646.575928   1301.943604  -1980.003540     10.551035
    6490           0      1646.575928   1301.943604  -2340.003662     11.715055
    6491           0      1646.575928   1301.943604  -2700.003662     14.240581
    6492           0      1646.575928   1301.943604  -3060.003418     17.697821
    6493           0      1646.575928   1301.943604  -3420.003906     21.744518
    6494           0      1646.575928   1301.943604  -3780.003906     26.185883
    6495           0      1646.575928   1301.943604  -4140.003906     30.849636
    6496           0      1646.575928   1301.943604  -4500.003906     35.592690
    6497           0      1646.575928   1301.943604  -4860.003906     40.291203
    6498           0      1646.575928   1301.943604  -5220.003906     44.844242
    6499           0      1646.575928   1301.943604  -5580.003906     49.171013
    6500           0      1646.575928   1301.943604  -5940.003418     53.211544
    6501           0      1646.575928   1301.943604  -6300.003906     56.922977
    6502           0      1646.575928   1301.943604  -6660.003906     60.279301
    6503           0      1646.575928   1301.943604  -7020.003906     63.268478
    6504           0      1646.575928   1301.943604  -7380.003906     65.891365
    6505           0      1646.575928   1301.943604  -7740.003906     68.159729
    6506           0      1646.575928   1301.943604  -8100.003418     70.095078
    6507           0      1646.575928   1301.943604  -8460.003906     71.727516
    6508           0      1646.575928   1301.943604  -8820.003906     73.094421
    6509           0      1646.575928   1301.943604  -9180.003906     74.239937
    6510           0      1646.575928   1301.943604  -9540.003906     75.213768
    6511           0      1646.575928   1301.943604  -9900.003906     76.070244
    6512           0      1646.575928   1301.943726  -10260.00390     76.866798
    6513           0      1646.575928   1301.943726  -10620.00390     77.659813
    6514           0      1646.575928   1301.943726  -10980.00390     78.497917
    6515           0      1646.575928   1301.943726  -11340.00390     79.416405
    6516           0      1646.575928   1301.943726  -11700.00390     80.413132
    6517           0      1646.575928   1301.943726  -12060.00390     81.503456
    6518           0      1646.575928   1301.943726  -12420.00390     82.616898
    6519           0      1646.575928   1301.943726  -12780.00390     83.804054
    6520           0      1646.575928   1301.943726  -13140.00390     85.148796
    6521           0      1646.575928   1301.943726  -13500.00390     85.730042
    6522           0      1646.575928   1301.943726  -13860.00390     89.693192
    6523           0      1646.575928   1301.943604  -14220.00293     83.675407
    6524           0      1568.088867   1395.480957   -180.003326     20.624035
    6525           0      1568.088867   1395.480957   -540.003357     19.103519
    6526           0      1568.088867   1395.480957   -900.003418     14.317803
    6527           0      1568.088867   1395.480957  -1260.003418     11.370460
    6528           0      1568.088867   1395.480957  -1620.003418      8.615955
    6529           0      1568.088867   1395.480957  -1980.003540      7.681850
    6530           0      1568.088867   1395.480957  -2340.003906      8.958397
    6531           0      1568.088867   1395.480957  -2700.003906     11.749128
    6532           0      1568.088867   1395.480957  -3060.003418     15.320976
    6533           0      1568.088867   1395.480957  -3420.003418     19.301062
    6534           0      1568.088867   1395.480957  -3780.003418     23.547941
    6535           0      1568.088867   1395.480957  -4140.003906     27.960167
    6536           0      1568.088867   1395.480957  -4500.003906     32.446323
    6537           0      1568.088867   1395.480957  -4860.003906     36.919193
    6538           0      1568.088867   1395.480957  -5220.003906     41.299812
    6539           0      1568.088867   1395.480957  -5580.003906     45.520401
    6540           0      1568.088867   1395.480957  -5940.003906     49.526527
    6541           0      1568.088867   1395.480957  -6300.003906     53.276379
    6542           0      1568.088867   1395.480957  -6660.003906     56.741158
    6543           0      1568.088867   1395.480957  -7020.003906     59.903763
    6544           0      1568.088867   1395.480957  -7380.003906     62.758404
    6545           0      1568.088867   1395.480957  -7740.003906     65.309418
    6546           0      1568.088867   1395.480957  -8100.003906     67.570587
    6547           0      1568.088867   1395.480957  -8460.003906     69.564415
    6548           0      1568.088867   1395.480957  -8820.003906     71.321320
    6549           0      1568.088867   1395.480957  -9180.003906     72.879158
    6550           0      1568.088867   1395.480957  -9540.003906     74.282112
    6551           0      1568.088867   1395.480957  -9900.003906     75.578781
    6552           0      1568.088867   1395.480957  -10260.00390     76.819641
    6553           0      1568.088867   1395.480957  -10620.00390     78.049370
    6554           0      1568.088867   1395.480957  -10980.00390     79.302460
    6555           0      1568.088867   1395.480957  -11340.00390     80.593483
    6556           0      1568.088867   1395.480957  -11700.00390     81.917656
    6557           0      1568.088867   1395.480957  -12060.00390     83.273705
    6558           0      1568.088867   1395.480957  -12420.00390     84.637352
    6559           0      1568.088867   1395.480957  -12780.00390     86.000298
    6560           0      1568.088867   1395.480957  -13140.00390     87.590187
    6561           0      1568.088867   1395.480957  -13500.00390     88.237556
    6562           0      1568.088867   1395.480957  -13860.00390     92.554642
    6563           0      1568.088867   1395.480957  -14220.00293     86.308540
    6564           0      1484.295898   1484.296265   -180.003326     18.537655
    6565           0      1484.295898   1484.296265   -540.003357     16.889774
    6566           0      1484.295898   1484.296265   -900.003418     12.174566
    6567           0      1484.295898   1484.296265  -1260.003418      9.029802
    6568           0      1484.295898   1484.296265  -1620.003418      6.052916
    6569           0      1484.295898   1484.296265  -1980.003418      5.187611
    6570           0      1484.295898   1484.296265  -2340.003418      7.114846
    6571           0      1484.295898   1484.296265  -2700.003418     10.366181
    6572           0      1484.295898   1484.296265  -3060.003418     14.083858
    6573           0      1484.295898   1484.296265  -3420.003418     18.008938
    6574           0      1484.295898   1484.296265  -3780.003662     22.070240
    6575           0      1484.295898   1484.296265  -4140.003418     26.230610
    6576           0      1484.295898   1484.296265  -4500.003906     30.443386
    6577           0      1484.295898   1484.296265  -4860.003906     34.655758
    6578           0      1484.295898   1484.296265  -5220.003906     38.810390
    6579           0      1484.295898   1484.296265  -5580.003418     42.853870
    6580           0      1484.295898   1484.296265  -5940.003418     46.739822
    6581           0      1484.295898   1484.296265  -6300.003906     50.430874
    6582           0      1484.295898   1484.296265  -6660.003906     53.899437
    6583           0      1484.295898   1484.296265  -7020.003906     57.127636
    6584           0      1484.295898   1484.296265  -7380.003418     60.107258
    6585           0      1484.295898   1484.296265  -7740.003906     62.839417
    6586           0      1484.295898   1484.296265  -8100.003906     65.334267
    6587           0      1484.295898   1484.296265  -8460.003906     67.610817
    6588           0      1484.295898   1484.296265  -8820.003906     69.696190
    6589           0      1484.295898   1484.296265  -9180.003906     71.624985
    6590           0      1484.295898   1484.296265  -9540.002930     73.437233
    6591           0      1484.295898   1484.296265  -9900.003906     75.174919
    6592           0      1484.295898   1484.296265  -10260.00390     76.878136
    6593           0      1484.295898   1484.296265  -10620.00390     78.575790
    6594           0      1484.295898   1484.296265  -10980.00390     80.286484
    6595           0      1484.295898   1484.296265  -11340.00390     82.007576
    6596           0      1484.295898   1484.296265  -11700.00390     83.737671
    6597           0      1484.295898   1484.296265  -12060.00390     85.462479
    6598           0      1484.295898   1484.296265  -12420.00390     87.202705
    6599           0      1484.295898   1484.296265  -12780.00390     88.879883
    6600           0      1484.295898   1484.296265  -13140.00390     90.875633
    6601           0      1484.295898   1484.296265  -13500.00390     91.718803
    6602           0      1484.295898   1484.296265  -13860.00390     96.619049
    6603           0      1484.295898   1484.296265  -14220.00293     90.147667
    6604           0      1395.480469   1568.089111   -180.003326     15.839631
    6605           0      1395.480469   1568.089111   -540.003357     14.090662
    6606           0      1395.480469   1568.089111   -900.003418      9.673002
    6607           0      1395.480469   1568.089111  -1260.003418      6.498958
    6608           0      1395.480469   1568.089111  -1620.003418      3.551714
    6609           0      1395.480469   1568.089111  -1980.003540      3.564634
    6610           0      1395.480469   1568.089111  -2340.003662      6.486974
    6611           0      1395.480469   1568.089111  -2700.003662     10.036980
    6612           0      1395.480469   1568.089111  -3060.003418     13.744554
    6613           0      1395.480469   1568.089111  -3420.003906     17.529434
    6614           0      1395.480469   1568.089111  -3780.003906     21.366611
    6615           0      1395.480469   1568.089111  -4140.003906     25.256962
    6616           0      1395.480469   1568.089111  -4500.003906     29.181362
    6617           0      1395.480469   1568.089111  -4860.003906     33.112888
    6618           0      1395.480469   1568.089111  -5220.003906     37.012104
    6619           0      1395.480469   1568.089111  -5580.003906     40.838192
    6620           0      1395.480469   1568.089111  -5940.003418     44.552402
    6621           0      1395.480469   1568.089111  -6300.003906     48.122334
    6622           0      1395.480469   1568.089111  -6660.003906     51.523460
    6623           0      1395.480469   1568.089111  -7020.003906     54.740036
    6624           0      1395.480469   1568.089233  -7380.003906     57.765369
    6625           0      1395.480469   1568.089233  -7740.003906     60.601868
    6626           0      1395.480469   1568.089233  -8100.003418     63.260818
    6627           0      1395.480469   1568.089233  -8460.003906     65.761902
    6628           0      1395.480469   1568.089233  -8820.003906     68.132141
    6629           0      1395.480469   1568.089233  -9180.003906     70.403870
    6630           0      1395.480469   1568.089233  -9540.003906     72.611862
    6631           0      1395.480469   1568.089233  -9900.003906     74.788002
    6632           0      1395.480469   1568.089233  -10260.00390     76.958336
    6633           0      1395.480469   1568.089233  -10620.00390     79.134216
    6634           0      1395.480469   1568.089233  -10980.00390     81.321205
    6635           0      1395.480469   1568.089233  -11340.00390     83.505646
    6636           0      1395.480469   1568.089233  -11700.00390     85.694153
    6637           0      1395.480469   1568.089233  -12060.00390     87.860580
    6638           0      1395.480469   1568.089233  -12420.00390     90.065208
    6639           0      1395.480469   1568.089233  -12780.00390     92.154404
    6640           0      1395.480469   1568.089233  -13140.00390     94.664742
    6641           0      1395.480469   1568.089233  -13500.00390     95.798927
    6642           0      1395.480469   1568.089233  -13860.00390    101.437912
    6643           0      1395.480469   1568.089111  -14220.00293     94.754921
    6644           0      1301.943237   1646.576172   -180.003326     12.974681
    6645           0      1301.943237   1646.576172   -540.003357     11.152326
    6646           0      1301.943237   1646.576172   -900.003418      7.170475
    6647           0      1301.943237   1646.576172  -1260.003418      4.087008
    6648           0      1301.943237   1646.576172  -1620.003418      1.495118
    6649           0      1301.943237   1646.576172  -1980.003540      3.511754
    6650           0      1301.943237   1646.576172  -2340.003906      6.864423
    6651           0      1301.943237   1646.576172  -2700.003906     10.357497
    6652           0      1301.943237   1646.576172  -3060.003418     13.876505
    6653           0      1301.943237   1646.576172  -3420.003418     17.428846
    6654           0      1301.943237   1646.576172  -3780.003418     20.997026
    6655           0      1301.943237   1646.576172  -4140.003906     24.594578
    6656           0      1301.943237   1646.576172  -4500.003906     28.214098
    6657           0      1301.943237   1646.576172  -4860.003906     31.845852
    6658           0      1301.943237   1646.576172  -5220.003906     35.465534
    6659           0      1301.943237   1646.576172  -5580.003906     39.044800
    6660           0      1301.943237   1646.576172  -5940.003906     42.553513
    6661           0      1301.943237   1646.576172  -6300.003906     45.965557
    6662           0      1301.943237   1646.576172  -6660.003906     49.261070
    6663           0      1301.943237   1646.576172  -7020.003906     52.428444
    6664           0      1301.943237   1646.576172  -7380.003906     55.464874
    6665           0      1301.943237   1646.576172  -7740.003906     58.376415
    6666           0      1301.943237   1646.576172  -8100.003906     61.177402
    6667           0      1301.943237   1646.576172  -8460.003906     63.889057
    6668           0      1301.943237   1646.576172  -8820.003906     66.537476
    6669           0      1301.943237   1646.576172  -9180.003906     69.150269
    6670           0      1301.943237   1646.576172  -9540.003906     71.753174
    6671           0      1301.943237   1646.576172  -9900.003906     74.364670
    6672           0      1301.943237   1646.576172  -10260.00390     76.995705
    6673           0      1301.943237   1646.576172  -10620.00390     79.643333
    6674           0      1301.943237   1646.576172  -10980.00390     82.305901
    6675           0      1301.943237   1646.576172  -11340.00390     84.965561
    6676           0      1301.943237   1646.576172  -11700.00390     87.637833
    6677           0      1301.943237   1646.576172  -12060.00390     90.285141
    6678           0      1301.943237   1646.576172  -12420.00390     92.999100
    6679           0      1301.943237   1646.576172  -12780.00390     95.554520
    6680           0      1301.943237   1646.576172  -13140.00390     98.633652
    6681           0      1301.943237   1646.576172  -13500.00390    100.117012
    6682           0      1301.943237   1646.576172  -13860.00390    106.572731
    6683           0      1301.943237   1646.576172  -14220.00293     99.700233
    6684           0      1204.000732   1719.491699   -180.003326     10.384699
    6685           0      1204.000732   1719.491699   -540.003357      8.533195
    6686           0      1204.000732   1719.491699   -900.003418      5.105264
    6687           0      1204.000732   1719.491699  -1260.003418      2.380592
    6688           0      1204.000732   1719.491699  -1620.003418      1.729900
    6689           0      1204.000732   1719.491699  -1980.003418      4.534188
    6690           0      1204.000732   1719.491699  -2340.003418      7.639859
    6691           0      1204.000732   1719.491699  -2700.003418     10.855888
    6692           0      1204.000732   1719.491699  -3060.003418     14.085321
    6693           0      1204.000732   1719.491699  -3420.003418     17.350792
    6694           0      1204.000732   1719.491699  -3780.003662     20.624638
    6695           0      1204.000732   1719.491699  -4140.003418     23.919201
    6696           0      1204.000732   1719.491699  -4500.003906     27.229019
    6697           0      1204.000732   1719.491699  -4860.003906     30.554205
    6698           0      1204.000732   1719.491699  -5220.003906     33.883244
    6699           0      1204.000732   1719.491699  -5580.003418     37.201118
    6700           0      1204.000732   1719.491699  -5940.003418     40.489098
    6701           0      1204.000732   1719.491699  -6300.003906     43.730198
    6702           0      1204.000732   1719.491699  -6660.003906     46.911739
    6703           0      1204.000732   1719.491699  -7020.003906     50.027824
    6704           0      1204.000732   1719.491699  -7380.003418     53.080112
    6705           0      1204.000732   1719.491699  -7740.003906     56.077808
    6706           0      1204.000732   1719.491699  -8100.003906     59.036362
    6707           0      1204.000732   1719.491699  -8460.003906     61.975407
    6708           0      1204.000732   1719.491699  -8820.003906     64.915848
    6709           0      1204.000732   1719.491699  -9180.003906     67.876236
    6710           0      1204.000732   1719.491699  -9540.002930     70.870018
    6711           0      1204.000732   1719.491699  -9900.003906     73.901978
    6712           0      1204.000732   1719.491699  -10260.00390     76.970970
    6713           0      1204.000732   1719.491699  -10620.00390     80.066185
    6714           0      1204.000732   1719.491699  -10980.00390     83.184578
    6715           0      1204.000732   1719.491699  -11340.00390     86.308517
    6716           0      1204.000732   1719.491699  -11700.00390     89.460014
    6717           0      1204.000732   1719.491699  -12060.00390     92.591072
    6718           0      1204.000732   1719.491699  -12420.00390     95.815819
    6719           0      1204.000732   1719.491699  -12780.00390     98.848206
    6720           0      1204.000732   1719.491699  -13140.00390    102.498055
    6721           0      1204.000732   1719.491699  -13500.00390    104.351410
    6722           0      1204.000732   1719.491699  -13860.00390    111.628235
    6723           0      1204.000732   1719.491699  -14220.00293    104.592445
    6724           0      1101.984131   1786.588989   -180.003326      8.475626
    6725           0      1101.984131   1786.588989   -540.003357      6.690512
    6726           0      1101.984131   1786.588989   -900.003418      4.034533
    6727           0      1101.984131   1786.588989  -1260.003418      2.479367
    6728           0      1101.984131   1786.588989  -1620.003418      3.288171
    6729           0      1101.984131   1786.588989  -1980.003540      5.682515
    6730           0      1101.984131   1786.588989  -2340.003662      8.374179
    6731           0      1101.984131   1786.588989  -2700.003662     11.239722
    6732           0      1101.984131   1786.588989  -3060.003418     14.144829
    6733           0      1101.984131   1786.588989  -3420.003906     17.105799
    6734           0      1101.984131   1786.588989  -3780.003906     20.084095
    6735           0      1101.984131   1786.588989  -4140.003906     23.086226
    6736           0      1101.984131   1786.588989  -4500.003906     26.104370
    6737           0      1101.984131   1786.588989  -4860.003906     29.142666
    6738           0      1101.984131   1786.588989  -5220.003906     32.199009
    6739           0      1101.984131   1786.588989  -5580.003906     35.270924
    6740           0      1101.984131   1786.588989  -5940.003418     38.352600
    6741           0      1101.984131   1786.588989  -6300.003906     41.438663
    6742           0      1101.984131   1786.588989  -6660.003906     44.525600
    6743           0      1101.984131   1786.588989  -7020.003906     47.614017
    6744           0      1101.984131   1786.588989  -7380.003906     50.709194
    6745           0      1101.984131   1786.588989  -7740.003906     53.820816
    6746           0      1101.984131   1786.588989  -8100.003418     56.961494
    6747           0      1101.984131   1786.588989  -8460.003906     60.144497
    6748           0      1101.984131   1786.588989  -8820.003906     63.381229
    6749           0      1101.984131   1786.588989  -9180.003906     66.678383
    6750           0      1101.984131   1786.588989  -9540.003906     70.037239
    6751           0      1101.984131   1786.588989  -9900.003906     73.452011
    6752           0      1101.984131   1786.588989  -10260.00390     76.915222
    6753           0      1101.984131   1786.588989  -10620.00390     80.414032
    6754           0      1101.984131   1786.588989  -10980.00390     83.947403
    6755           0      1101.984131   1786.588989  -11340.00390     87.498871
    6756           0      1101.984131   1786.588989  -11700.00390     91.093567
    6757           0      1101.984131   1786.588989  -12060.00390     94.674889
    6758           0      1101.984131   1786.588989  -12420.00390     98.372002
    6759           0      1101.984131   1786.588989  -12780.00390    101.852226
    6760           0      1101.984131   1786.588989  -13140.00390    106.029312
    6761           0      1101.984131   1786.588989  -13500.00390    108.238373
    6762           0      1101.984131   1786.588989  -13860.00390    116.278519
    6763           0      1101.984131   1786.588989  -14220.00293    109.105217
    6764           0       996.238892   1847.641113   -180.003326      7.521344
    6765           0       996.238892   1847.641113   -540.003357      5.951033
    6766           0       996.238892   1847.641113   -900.003418      4.217484
    6767           0       996.238892   1847.641113  -1260.003418      3.693997
    6768           0       996.238892   1847.641113  -1620.003418      4.653170
    6769           0       996.238892   1847.641113  -1980.003540      6.618802
    6770           0       996.238892   1847.641113  -2340.003906      8.903719
    6771           0       996.238892   1847.641113  -2700.003906     11.415386
    6772           0       996.238892   1847.641113  -3060.003418     14.002897
    6773           0       996.238892   1847.641113  -3420.003418     16.671568
    6774           0       996.238892   1847.641113  -3780.003418     19.377478
    6775           0       996.238892   1847.641113  -4140.003906     22.121328
    6776           0       996.238892   1847.641113  -4500.003906     24.892757
    6777           0       996.238892   1847.641113  -4860.003906     27.696104
    6778           0       996.238892   1847.641113  -5220.003906     30.534441
    6779           0       996.238892   1847.641113  -5580.003906     33.414104
    6780           0       996.238892   1847.641113  -5940.003906     36.340229
    6781           0       996.238892   1847.641113  -6300.003906     39.318066
    6782           0       996.238892   1847.641113  -6660.003906     42.352810
    6783           0       996.238892   1847.641113  -7020.003906     45.450508
    6784           0       996.238892   1847.641113  -7380.003906     48.618057
    6785           0       996.238892   1847.641113  -7740.003906     51.862778
    6786           0       996.238892   1847.641113  -8100.003906     55.191231
    6787           0       996.238892   1847.641113  -8460.003906     58.607662
    6788           0       996.238892   1847.641113  -8820.003906     62.112831
    6789           0       996.238892   1847.641113  -9180.003906     65.702858
    6790           0       996.238892   1847.641113  -9540.003906     69.370308
    6791           0       996.238892   1847.641113  -9900.003906     73.104240
    6792           0       996.238892   1847.641113  -10260.00390     76.895660
    6793           0       996.238892   1847.641113  -10620.00390     80.733315
    6794           0       996.238892   1847.641113  -10980.00390     84.617889
    6795           0       996.238892   1847.641113  -11340.00390     88.534035
    6796           0       996.238892   1847.641113  -11700.00390     92.506020
    6797           0       996.238892   1847.641113  -12060.00390     96.472961
    6798           0       996.238892   1847.641113  -12420.00390    100.570877
    6799           0       996.238892   1847.641113  -12780.00390    104.438263
    6800           0       996.238892   1847.641113  -13140.00390    109.062752
    6801           0       996.238892   1847.641113  -13500.00390    111.586441
    6802           0       996.238892   1847.641113  -13860.00390    120.281731
    6803           0       996.238892   1847.641113  -14220.00293    112.997726
    6804           0       887.122559   1902.441284   -180.003326      7.495802
    6805           0       887.122559   1902.441284   -540.003357      6.203615
    6806           0       887.122559   1902.441284   -900.003418      5.106906
    6807           0       887.122559   1902.441284  -1260.003418      4.932735
    6808           0       887.122559   1902.441284  -1620.003418      5.731577
    6809           0       887.122559   1902.441284  -1980.003418      7.312814
    6810           0       887.122559   1902.441284  -2340.003418      9.238698
    6811           0       887.122559   1902.441284  -2700.003418     11.428926
    6812           0       887.122559   1902.441284  -3060.003418     13.736135
    6813           0       887.122559   1902.441284  -3420.003418     16.152473
    6814           0       887.122559   1902.441284  -3780.003662     18.634205
    6815           0       887.122559   1902.441284  -4140.003418     21.177483
    6816           0       887.122559   1902.441284  -4500.003906     23.771145
    6817           0       887.122559   1902.441284  -4860.003906     26.417849
    6818           0       887.122559   1902.441284  -5220.003906     29.121836
    6819           0       887.122559   1902.441284  -5580.003418     31.892681
    6820           0       887.122559   1902.441284  -5940.003418     34.740845
    6821           0       887.122559   1902.441284  -6300.003906     37.677410
    6822           0       887.122559   1902.441284  -6660.003906     40.712364
    6823           0       887.122559   1902.441284  -7020.003906     43.854233
    6824           0       887.122559   1902.441284  -7380.003418     47.109318
    6825           0       887.122559   1902.441284  -7740.003906     50.481205
    6826           0       887.122559   1902.441284  -8100.003906     53.970219
    6827           0       887.122559   1902.441284  -8460.003906     57.573009
    6828           0       887.122559   1902.441284  -8820.003906     61.282795
    6829           0       887.122559   1902.441284  -9180.003906     65.089752
    6830           0       887.122559   1902.441284  -9540.002930     68.982964
    6831           0       887.122559   1902.441284  -9900.003906     72.951012
    6832           0       887.122559   1902.441284  -10260.00390     76.986000
    6833           0       887.122559   1902.441284  -10620.00390     81.079041
    6834           0       887.122559   1902.441284  -10980.00390     85.230743
    6835           0       887.122559   1902.441284  -11340.00390     89.426605
    6836           0       887.122559   1902.441284  -11700.00390     93.687340
    6837           0       887.122559   1902.441284  -12060.00390     97.952637
    6838           0       887.122559   1902.441284  -12420.00390    102.357788
    6839           0       887.122559   1902.441284  -12780.00390    106.529892
    6840           0       887.122498   1902.441284  -13140.00390    111.499268
    6841           0       887.122498   1902.441284  -13500.00390    114.277260
    6842           0       887.122498   1902.441284  -13860.00390    123.488892
    6843           0       887.122559   1902.441284  -14220.00293    116.118996
    6844           0       775.004578   1950.804199   -180.003326      8.112281
    6845           0       775.004578   1950.804199   -540.003357      7.018084
    6846           0       775.004578   1950.804199   -900.003418      6.186854
    6847           0       775.004578   1950.804199  -1260.003418      6.027655
    6848           0       775.004578   1950.804199  -1620.003418      6.611742
    6849           0       775.004578   1950.804199  -1980.003540      7.857148
    6850           0       775.004578   1950.804199  -2340.003662      9.484115
    6851           0       775.004578   1950.804199  -2700.003662     11.406878
    6852           0       775.004578   1950.804199  -3060.003418     13.493763
    6853           0       775.004578   1950.804199  -3420.003906     15.720914
    6854           0       775.004578   1950.804199  -3780.003906     18.047592
    6855           0       775.004578   1950.804199  -4140.003906     20.465275
    6856           0       775.004578   1950.804199  -4500.003906     22.963144
    6857           0       775.004578   1950.804199  -4860.003906     25.541069
    6858           0       775.004578   1950.804199  -5220.003906     28.201454
    6859           0       775.004578   1950.804199  -5580.003906     30.951685
    6860           0       775.004517   1950.804199  -5940.003418     33.801083
    6861           0       775.004517   1950.804199  -6300.003906     36.760063
    6862           0       775.004517   1950.804199  -6660.003906     39.838131
    6863           0       775.004517   1950.804199  -7020.003906     43.042702
    6864           0       775.004517   1950.804199  -7380.003906     46.378059
    6865           0       775.004517   1950.804199  -7740.003906     49.844784
    6866           0       775.004517   1950.804199  -8100.003418     53.439735
    6867           0       775.004517   1950.804199  -8460.003906     57.156357
    6868           0       775.004517   1950.804199  -8820.003906     60.985641
    6869           0       775.004517   1950.804199  -9180.003906     64.917213
    6870           0       775.004517   1950.804199  -9540.003906     68.941147
    6871           0       775.004517   1950.804199  -9900.003906     73.048233
    6872           0       775.004517   1950.804199  -10260.00390     77.232269
    6873           0       775.004517   1950.804199  -10620.00390     81.486084
    6874           0       775.004517   1950.804199  -10980.00390     85.808800
    6875           0       775.004517   1950.804199  -11340.00390     90.187088
    6876           0       775.004517   1950.804199  -11700.00390     94.636864
    6877           0       775.004517   1950.804199  -12060.00390     99.102432
    6878           0       775.004517   1950.804199  -12420.00390    103.712204
    6879           0       775.004517   1950.804199  -12780.00390    108.096619
    6880           0       775.004517   1950.804199  -13140.00390    113.299980
    6881           0       775.004517   1950.804321  -13500.00390    116.262550
    6882           0       775.004517   1950.804321  -13860.00390    125.839676
    6883           0       775.004517   1950.804199  -14220.00293    118.407516
    6884           0       660.264221   1992.566406   -180.003326      9.101254
    6885           0       660.264221   1992.566406   -540.003357      8.104020
    6886           0       660.264221   1992.566406   -900.003418      7.325689
    6887           0       660.264221   1992.566406  -1260.003418      7.062778
    6888           0       660.264221   1992.566406  -1620.003418      7.436740
    6889           0       660.264221   1992.566406  -1980.003540      8.396298
    6890           0       660.264221   1992.566406  -2340.003906      9.784272
    6891           0       660.264221   1992.566406  -2700.003906     11.501451
    6892           0       660.264221   1992.566406  -3060.003418     13.436576
    6893           0       660.264221   1992.566406  -3420.003418     15.546992
    6894           0       660.264221   1992.566406  -3780.003418     17.794069
    6895           0       660.264221   1992.566406  -4140.003906     20.162405
    6896           0       660.264221   1992.566406  -4500.003906     22.640516
    6897           0       660.264221   1992.566406  -4860.003906     25.224113
    6898           0       660.264221   1992.566406  -5220.003906     27.911856
    6899           0       660.264221   1992.566406  -5580.003906     30.705662
    6900           0       660.264221   1992.566406  -5940.003906     33.609474
    6901           0       660.264221   1992.566406  -6300.003906     36.628483
    6902           0       660.264221   1992.566406  -6660.003906     39.767883
    6903           0       660.264221   1992.566406  -7020.003906     43.031677
    6904           0       660.264221   1992.566406  -7380.003906     46.421825
    6905           0       660.264221   1992.566406  -7740.003906     49.937679
    6906           0       660.264221   1992.566406  -8100.003906     53.575958
    6907           0       660.264221   1992.566406  -8460.003906     57.331238
    6908           0       660.264221   1992.566406  -8820.003906     61.196785
    6909           0       660.264221   1992.566406  -9180.003906     65.165443
    6910           0       660.264221   1992.566406  -9540.003906     69.230576
    6911           0       660.264221   1992.566406  -9900.003906     73.386162
    6912           0       660.264221   1992.566406  -10260.00390     77.627426
    6913           0       660.264221   1992.566406  -10620.00390     81.948540
    6914           0       660.264221   1992.566406  -10980.00390     86.346931
    6915           0       660.264221   1992.566406  -11340.00390     90.811317
    6916           0       660.264221   1992.566406  -11700.00390     95.352577
    6917           0       660.264221   1992.566406  -12060.00390     99.922607
    6918           0       660.264221   1992.566406  -12420.00390    104.638275
    6919           0       660.264221   1992.566406  -12780.00390    109.144775
    6920           0       660.264221   1992.566406  -13140.00390    114.476440
    6921           0       660.264221   1992.566406  -13500.00390    117.554642
    6922           0       660.264221   1992.566406  -13860.00390    127.351494
    6923           0       660.264221   1992.566406  -14220.00293    119.880684
    6924           0       543.289673   2027.586182   -180.003326     10.320962
    6925           0       543.289673   2027.586182   -540.003357      9.370095
    6926           0       543.289673   2027.586182   -900.003418      8.550272
    6927           0       543.289673   2027.586182  -1260.003418      8.161133
    6928           0       543.289673   2027.586182  -1620.003418      8.347619
    6929           0       543.289673   2027.586182  -1980.003418      9.071624
    6930           0       543.289673   2027.586182  -2340.003418     10.270320
    6931           0       543.289673   2027.586182  -2700.003418     11.835735
    6932           0       543.289673   2027.586182  -3060.003418     13.676203
    6933           0       543.289673   2027.586182  -3420.003418     15.729885
    6934           0       543.289673   2027.586182  -3780.003662     17.956812
    6935           0       543.289673   2027.586182  -4140.003418     20.331844
    6936           0       543.289673   2027.586182  -4500.003906     22.840160
    6937           0       543.289673   2027.586182  -4860.003906     25.471806
    6938           0       543.289673   2027.586182  -5220.003906     28.220768
    6939           0       543.289673   2027.586182  -5580.003418     31.082901
    6940           0       543.289673   2027.586182  -5940.003418     34.055973
    6941           0       543.289673   2027.586182  -6300.003906     37.138954
    6942           0       543.289673   2027.586182  -6660.003906     40.331810
    6943           0       543.289673   2027.586182  -7020.003906     43.634747
    6944           0       543.289673   2027.586304  -7380.003418     47.047745
    6945           0       543.289673   2027.586304  -7740.003906     50.570122
    6946           0       543.289673   2027.586304  -8100.003906     54.200344
    6947           0       543.289673   2027.586304  -8460.003906     57.936222
    6948           0       543.289673   2027.586304  -8820.003906     61.775105
    6949           0       543.289673   2027.586304  -9180.003906     65.714256
    6950           0       543.289673   2027.586304  -9540.002930     69.750847
    6951           0       543.289673   2027.586304  -9900.003906     73.881966
    6952           0       543.289612   2027.586304  -10260.00390     78.104279
    6953           0       543.289612   2027.586304  -10620.00390     82.413635
    6954           0       543.289612   2027.586304  -10980.00390     86.806465
    6955           0       543.289612   2027.586304  -11340.00390     91.274696
    6956           0       543.289612   2027.586304  -11700.00390     95.824547
    6957           0       543.289612   2027.586304  -12060.00390    100.417290
    6958           0       543.289612   2027.586304  -12420.00390    105.155495
    6959           0       543.289612   2027.586304  -12780.00390    109.706474
    6960           0       543.289612   2027.586304  -13140.00390    115.077385
    6961           0       543.289612   2027.586304  -13500.00390    118.211243
    6962           0       543.289612   2027.586304  -13860.00390    128.102036
    6963           0       543.289612   2027.586182  -14220.00293    120.616928
    6964           0       424.476898   2055.745361   -180.003326     11.694601
    6965           0       424.476898   2055.745361   -540.003357     10.785460
    6966           0       424.476898   2055.745361   -900.003418      9.895000
    6967           0       424.476898   2055.745361  -1260.003418      9.403185
    6968           0       424.476898   2055.745361  -1620.003418      9.434053
    6969           0       424.476898   2055.745361  -1980.003540      9.971535
    6970           0       424.476898   2055.745361  -2340.003662     11.015388
    6971           0       424.476898   2055.745361  -2700.003662     12.462198
    6972           0       424.476898   2055.745361  -3060.003418     14.236965
    6973           0       424.476898   2055.745361  -3420.003906     16.262676
    6974           0       424.476898   2055.745361  -3780.003906     18.494862
    6975           0       424.476898   2055.745361  -4140.003906     20.897221
    6976           0       424.476898   2055.745361  -4500.003906     23.449125
    6977           0       424.476868   2055.745361  -4860.003906     26.133974
    6978           0       424.476868   2055.745361  -5220.003906     28.940901
    6979           0       424.476868   2055.745361  -5580.003906     31.860651
    6980           0       424.476868   2055.745361  -5940.003418     34.886238
    6981           0       424.476868   2055.745361  -6300.003906     38.011951
    6982           0       424.476868   2055.745361  -6660.003906     41.233746
    6983           0       424.476868   2055.745361  -7020.003906     44.548901
    6984           0       424.476868   2055.745361  -7380.003906     47.955967
    6985           0       424.476868   2055.745361  -7740.003906     51.454453
    6986           0       424.476868   2055.745361  -8100.003418     55.044586
    6987           0       424.476868   2055.745361  -8460.003906     58.727097
    6988           0       424.476868   2055.745361  -8820.003906     62.502907
    6989           0       424.476868   2055.745361  -9180.003906     66.372940
    6990           0       424.476868   2055.745361  -9540.003906     70.337532
    6991           0       424.476868   2055.745361  -9900.003906     74.396545
    6992           0       424.476837   2055.745361  -10260.00390     78.548309
    6993           0       424.476837   2055.745361  -10620.00390     82.791031
    6994           0       424.476837   2055.745361  -10980.00390     87.121246
    6995           0       424.476837   2055.745361  -11340.00390     91.534889
    6996           0       424.476837   2055.745361  -11700.00390     96.034241
    6997           0       424.476837   2055.745361  -12060.00390    100.590546
    6998           0       424.476837   2055.745361  -12420.00390    105.291191
    6999           0       424.476837   2055.745361  -12780.00390    109.829369
    7000           0       424.476837   2055.745361  -13140.00390    115.174522
    7001           0       424.476837   2055.745361  -13500.00390    118.319458
    7002           0       424.476837   2055.745361  -13860.00390    128.206650
    7003           0       424.476868   2055.745361  -14220.00293    120.734535
    7004           0       304.227783   2076.948730   -180.003326     13.148089
    7005           0       304.227783   2076.948730   -540.003357     12.299626
    7006           0       304.227783   2076.948730   -900.003418     11.349308
    7007           0       304.227783   2076.948730  -1260.003418     10.798734
    7008           0       304.227783   2076.948730  -1620.003418     10.712424
    7009           0       304.227783   2076.948730  -1980.003540     11.108695
    7010           0       304.227783   2076.948730  -2340.003906     12.018144
    7011           0       304.227783   2076.948730  -2700.003906     13.356082
    7012           0       304.227783   2076.948730  -3060.003418     15.061951
    7013           0       304.227783   2076.948730  -3420.003418     17.052002
    7014           0       304.227783   2076.948730  -3780.003418     19.276808
    7015           0       304.227783   2076.948730  -4140.003906     21.690189
    7016           0       304.227783   2076.948730  -4500.003906     24.264841
    7017           0       304.227783   2076.948730  -4860.003906     26.977551
    7018           0       304.227783   2076.948730  -5220.003906     29.812855
    7019           0       304.227783   2076.948730  -5580.003906     32.757626
    7020           0       304.227783   2076.948730  -5940.003906     35.801857
    7021           0       304.227783   2076.948730  -6300.003906     38.937206
    7022           0       304.227783   2076.948730  -6660.003906     42.157398
    7023           0       304.227783   2076.948730  -7020.003906     45.458004
    7024           0       304.227783   2076.948730  -7380.003906     48.836594
    7025           0       304.227783   2076.948730  -7740.003906     52.292618
    7026           0       304.227783   2076.948730  -8100.003906     55.827053
    7027           0       304.227783   2076.948730  -8460.003906     59.442169
    7028           0       304.227783   2076.948730  -8820.003906     63.140835
    7029           0       304.227783   2076.948730  -9180.003906     66.926163
    7030           0       304.227783   2076.948730  -9540.003906     70.800545
    7031           0       304.227783   2076.948730  -9900.003906     74.766167
    7032           0       304.227783   2076.948730  -10260.00390     78.823097
    7033           0       304.227783   2076.948730  -10620.00390     82.972389
    7034           0       304.227783   2076.948730  -10980.00390     87.211243
    7035           0       304.227783   2076.948730  -11340.00390     91.539932
    7036           0       304.227783   2076.948730  -11700.00390     95.957520
    7037           0       304.227783   2076.948730  -12060.00390    100.444672
    7038           0       304.227783   2076.948730  -12420.00390    105.074661
    7039           0       304.227783   2076.948730  -12780.00390    109.566223
    7040           0       304.227783   2076.948730  -13140.00390    114.847908
    7041           0       304.227783   2076.948730  -13500.00390    117.977287
    7042           0       304.227783   2076.948730  -13860.00390    127.795456
    7043           0       304.227783   2076.948730  -14220.00293    120.367165
    7044           0       182.949219   2091.124023   -180.003326     14.597615
    7045           0       182.949219   2091.124023   -540.003357     13.834952
    7046           0       182.949219   2091.124023   -900.003418     12.862131
    7047           0       182.949219   2091.124023  -1260.003418     12.301427
    7048           0       182.949219   2091.124023  -1620.003418     12.140079
    7049           0       182.949219   2091.124023  -1980.003418     12.434381
    7050           0       182.949219   2091.124023  -2340.003418     13.221030
    7051           0       182.949203   2091.124023  -2700.003418     14.442860
    7052           0       182.949203   2091.124023  -3060.003418     16.052893
    7053           0       182.949203   2091.124023  -3420.003418     17.971296
    7054           0       182.949203   2091.124023  -3780.003662     20.146490
    7055           0       182.949203   2091.124023  -4140.003418     22.526474
    7056           0       182.949203   2091.124023  -4500.003906     25.078344
    7057           0       182.949203   2091.124023  -4860.003906     27.773552
    7058           0       182.949203   2091.124023  -5220.003906     30.592701
    7059           0       182.949203   2091.124023  -5580.003418     33.519733
    7060           0       182.949203   2091.124023  -5940.003418     36.542740
    7061           0       182.949203   2091.124023  -6300.003906     39.652031
    7062           0       182.949203   2091.124023  -6660.003906     42.840290
    7063           0       182.949203   2091.124023  -7020.003906     46.102222
    7064           0       182.949203   2091.124023  -7380.003418     49.434727
    7065           0       182.949203   2091.124023  -7740.003906     52.836781
    7066           0       182.949203   2091.124023  -8100.003906     56.309273
    7067           0       182.949203   2091.124023  -8460.003906     59.854668
    7068           0       182.949188   2091.124023  -8820.003906     63.476318
    7069           0       182.949173   2091.124023  -9180.003906     67.178230
    7070           0       182.949173   2091.124023  -9540.002930     70.963875
    7071           0       182.949173   2091.124023  -9900.003906     74.837013
    7072           0       182.949173   2091.124023  -10260.00390     78.799255
    7073           0       182.949173   2091.124023  -10620.00390     82.854042
    7074           0       182.949173   2091.124023  -10980.00390     86.999535
    7075           0       182.949173   2091.124023  -11340.00390     91.239388
    7076           0       182.949173   2091.124023  -11700.00390     95.570595
    7077           0       182.949173   2091.124023  -12060.00390     99.981033
    7078           0       182.949173   2091.124023  -12420.00390    104.533104
    7079           0       182.949158   2091.124023  -12780.00390    108.966362
    7080           0       182.949158   2091.124023  -13140.00390    114.173103
    7081           0       182.949158   2091.124023  -13500.00390    117.276634
    7082           0       182.949158   2091.124023  -13860.00390    126.991982
    7083           0       182.949188   2091.124023  -14220.00293    119.640388
    7084           0        61.051674   2098.223633   -180.003326     15.965272
    7085           0        61.051674   2098.223633   -540.003357     15.311399
    7086           0        61.051674   2098.223633   -900.003418     14.367589
    7087           0        61.051674   2098.223633  -1260.003418     13.841393
    7088           0        61.051666   2098.223633  -1620.003418     13.646888
    7089           0        61.051662   2098.223633  -1980.003540     13.871794
    7090           0        61.051662   2098.223633  -2340.003662     14.544189
    7091           0        61.051662   2098.223633  -2700.003662     15.636059
    7092           0        61.051662   2098.223633  -3060.003418     17.113644
    7093           0        61.051662   2098.223633  -3420.003906     18.910580
    7094           0        61.051662   2098.223633  -3780.003906     20.978329
    7095           0        61.051662   2098.223633  -4140.003906     23.264908
    7096           0        61.051662   2098.223633  -4500.003906     25.734770
    7097           0        61.051662   2098.223633  -4860.003906     28.356436
    7098           0        61.051659   2098.223633  -5220.003906     31.107788
    7099           0        61.051655   2098.223633  -5580.003906     33.970692
    7100           0        61.051655   2098.223633  -5940.003418     36.931770
    7101           0        61.051655   2098.223633  -6300.003906     39.980331
    7102           0        61.051655   2098.223633  -6660.003906     43.108307
    7103           0        61.051655   2098.223633  -7020.003906     46.309746
    7104           0        61.051655   2098.223633  -7380.003906     49.580910
    7105           0        61.051655   2098.223633  -7740.003906     52.920166
    7106           0        61.051655   2098.223633  -8100.003418     56.327881
    7107           0        61.051655   2098.223633  -8460.003906     59.806091
    7108           0        61.051651   2098.223633  -8820.003906     63.357941
    7109           0        61.051643   2098.223633  -9180.003906     66.987450
    7110           0        61.051643   2098.223633  -9540.003906     70.698425
    7111           0        61.051643   2098.223633  -9900.003906     74.495354
    7112           0        61.051643   2098.223633  -10260.00390     78.380692
    7113           0        61.051643   2098.223633  -10620.00390     82.359093
    7114           0        61.051643   2098.223633  -10980.00390     86.429352
    7115           0        61.051643   2098.223633  -11340.00390     90.596848
    7116           0        61.051643   2098.223633  -11700.00390     94.857590
    7117           0        61.051643   2098.223633  -12060.00390     99.203300
    7118           0        61.051643   2098.223633  -12420.00390    103.690063
    7119           0        61.051636   2098.223633  -12780.00390    108.070686
    7120           0        61.051632   2098.223633  -13140.00390    113.210777
    7121           0        61.051632   2098.223633  -13500.00390    116.291191
    7122           0        61.051632   2098.223633  -13860.00390    125.893509
    7123           0        61.051651   2098.223633  -14220.00293    118.653427
    7124           0       -61.052467   2098.223633   -180.003326     17.200577
    7125           0       -61.052467   2098.223633   -540.003357     16.670757
    7126           0       -61.052467   2098.223633   -900.003418     15.808630
    7127           0       -61.052467   2098.223633  -1260.003418     15.351923
    7128           0       -61.052467   2098.223633  -1620.003418     15.161307
    7129           0       -61.052467   2098.223633  -1980.003540     15.343147
    7130           0       -61.052467   2098.223633  -2340.003906     15.910986
    7131           0       -61.052467   2098.223633  -2700.003906     16.862112
    7132           0       -61.052467   2098.223633  -3060.003418     18.174627
    7133           0       -61.052467   2098.223633  -3420.003418     19.801754
    7134           0       -61.052467   2098.223633  -3780.003418     21.703367
    7135           0       -61.052467   2098.223633  -4140.003906     23.833897
    7136           0       -61.052467   2098.223633  -4500.003906     26.159336
    7137           0       -61.052467   2098.223633  -4860.003906     28.648611
    7138           0       -61.052467   2098.223633  -5220.003906     31.278763
    7139           0       -61.052467   2098.223633  -5580.003906     34.030590
    7140           0       -61.052467   2098.223633  -5940.003906     36.889515
    7141           0       -61.052467   2098.223633  -6300.003906     39.843716
    7142           0       -61.052467   2098.223633  -6660.003906     42.884148
    7143           0       -61.052467   2098.223633  -7020.003906     46.004047
    7144           0       -61.052471   2098.223633  -7380.003906     49.198994
    7145           0       -61.052475   2098.223633  -7740.003906     52.466801
    7146           0       -61.052475   2098.223633  -8100.003906     55.807297
    7147           0       -61.052475   2098.223633  -8460.003906     59.222050
    7148           0       -61.052475   2098.223633  -8820.003906     62.713764
    7149           0       -61.052475   2098.223633  -9180.003906     66.286064
    7150           0       -61.052475   2098.223633  -9540.003906     69.942459
    7151           0       -61.052475   2098.223633  -9900.003906     73.687172
    7152           0       -61.052475   2098.223633  -10260.00390     77.522423
    7153           0       -61.052475   2098.223633  -10620.00390     81.452698
    7154           0       -61.052475   2098.223633  -10980.00390     85.476494
    7155           0       -61.052475   2098.223633  -11340.00390     89.599106
    7156           0       -61.052475   2098.223633  -11700.00390     93.816109
    7157           0       -61.052475   2098.223633  -12060.00390     98.119789
    7158           0       -61.052483   2098.223633  -12420.00390    102.564224
    7159           0       -61.052483   2098.223633  -12780.00390    106.907364
    7160           0       -61.052483   2098.223633  -13140.00390    111.999298
    7161           0       -61.052483   2098.223633  -13500.00390    115.066742
    7162           0       -61.052483   2098.223633  -13860.00390    124.557465
    7163           0       -61.052475   2098.223633  -14220.00293    117.465698
    7164           0      -182.950089   2091.124023   -180.003326     18.289738
    7165           0      -182.950089   2091.124023   -540.003357     17.889641
    7166           0      -182.950089   2091.124023   -900.003418     17.149406
    7167           0      -182.950089   2091.124023  -1260.003418     16.783617
    7168           0      -182.950089   2091.124023  -1620.003418     16.624533
    7169           0      -182.950104   2091.124023  -1980.003418     16.783747
    7170           0      -182.950104   2091.124023  -2340.003418     17.260044
    7171           0      -182.950104   2091.124023  -2700.003418     18.069429
    7172           0      -182.950104   2091.124023  -3060.003418     19.198879
    7173           0      -182.950104   2091.124023  -3420.003418     20.622702
    7174           0      -182.950104   2091.124023  -3780.003662     22.312567
    7175           0      -182.950104   2091.124023  -4140.003418     24.234543
    7176           0      -182.950104   2091.124023  -4500.003906     26.360521
    7177           0      -182.950104   2091.124023  -4860.003906     28.663551
    7178           0      -182.950104   2091.124023  -5220.003906     31.122231
    7179           0      -182.950104   2091.124023  -5580.003418     33.717773
    7180           0      -182.950104   2091.124023  -5940.003418     36.435009
    7181           0      -182.950104   2091.124023  -6300.003906     39.261192
    7182           0      -182.950104   2091.124023  -6660.003906     42.186340
    7183           0      -182.950119   2091.124023  -7020.003906     45.202934
    7184           0      -182.950119   2091.124023  -7380.003418     48.306015
    7185           0      -182.950119   2091.124023  -7740.003906     51.492966
    7186           0      -182.950119   2091.124023  -8100.003906     54.763206
    7187           0      -182.950119   2091.124023  -8460.003906     58.117817
    7188           0      -182.950119   2091.124023  -8820.003906     61.558838
    7189           0      -182.950119   2091.124023  -9180.003906     65.089050
    7190           0      -182.950119   2091.124023  -9540.002930     68.710922
    7191           0      -182.950134   2091.124023  -9900.003906     72.427422
    7192           0      -182.950134   2091.124023  -10260.00390     76.239380
    7193           0      -182.950134   2091.124023  -10620.00390     80.149628
    7194           0      -182.950134   2091.124023  -10980.00390     84.155556
    7195           0      -182.950134   2091.124023  -11340.00390     88.260544
    7196           0      -182.950134   2091.124023  -11700.00390     92.460243
    7197           0      -182.950134   2091.124023  -12060.00390     96.744179
    7198           0      -182.950134   2091.124023  -12420.00390    101.168816
    7199           0      -182.950134   2091.124023  -12780.00390    105.489174
    7200           0      -182.950150   2091.124023  -13140.00390    110.551003
    7201           0      -182.950165   2091.124023  -13500.00390    113.614845
    7202           0      -182.950165   2091.124023  -13860.00390    122.995354
    7203           0      -182.950119   2091.124023  -14220.00293    116.087471
    7204           0      -304.228607   2076.948730   -180.003326     19.255096
    7205           0      -304.228607   2076.948730   -540.003357     18.978601
    7206           0      -304.228607   2076.948730   -900.003418     18.378511
    7207           0      -304.228607   2076.948730  -1260.003418     18.108459
    7208           0      -304.228607   2076.948730  -1620.003418     17.996286
    7209           0      -304.228607   2076.948730  -1980.003540     18.147350
    7210           0      -304.228607   2076.948730  -2340.003662     18.548977
    7211           0      -304.228607   2076.948730  -2700.003662     19.228596
    7212           0      -304.228607   2076.948730  -3060.003418     20.178015
    7213           0      -304.228607   2076.948730  -3420.003906     21.389820
    7214           0      -304.228607   2076.948730  -3780.003906     22.847427
    7215           0      -304.228607   2076.948730  -4140.003906     24.530949
    7216           0      -304.228607   2076.948730  -4500.003906     26.421047
    7217           0      -304.228607   2076.948730  -4860.003906     28.498032
    7218           0      -304.228607   2076.948730  -5220.003906     30.744457
    7219           0      -304.228607   2076.948730  -5580.003906     33.143917
    7220           0      -304.228607   2076.948730  -5940.003418     35.682129
    7221           0      -304.228607   2076.948730  -6300.003906     38.346718
    7222           0      -304.228607   2076.948730  -6660.003906     41.127800
    7223           0      -304.228638   2076.948730  -7020.003906     44.017948
    7224           0      -304.228638   2076.948730  -7380.003906     47.012196
    7225           0      -304.228638   2076.948730  -7740.003906     50.107727
    7226           0      -304.228638   2076.948730  -8100.003418     53.303371
    7227           0      -304.228638   2076.948730  -8460.003906     56.599255
    7228           0      -304.228638   2076.948730  -8820.003906     59.996063
    7229           0      -304.228638   2076.948730  -9180.003906     63.494862
    7230           0      -304.228638   2076.948730  -9540.003906     67.096123
    7231           0      -304.228638   2076.948730  -9900.003906     70.800529
    7232           0      -304.228638   2076.948730  -10260.00390     74.606659
    7233           0      -304.228638   2076.948730  -10620.00390     78.514580
    7234           0      -304.228638   2076.948730  -10980.00390     82.520103
    7235           0      -304.228638   2076.948730  -11340.00390     86.623154
    7236           0      -304.228638   2076.948730  -11700.00390     90.820427
    7237           0      -304.228638   2076.948730  -12060.00390     95.095474
    7238           0      -304.228638   2076.948730  -12420.00390     99.511581
    7239           0      -304.228638   2076.948730  -12780.00390    103.813416
    7240           0      -304.228638   2076.948730  -13140.00390    108.851936
    7241           0      -304.228668   2076.948730  -13500.00390    111.913345
    7242           0      -304.228668   2076.948730  -13860.00390    121.171883
    7243           0      -304.228638   2076.948730  -14220.00293    114.481232
    7244           0      -424.477692   2055.745361   -180.003326     20.144651
    7245           0      -424.477692   2055.745361   -540.003357     19.974466
    7246           0      -424.477692   2055.745361   -900.003418     19.505850
    7247           0      -424.477692   2055.745361  -1260.003418     19.319342
    7248           0      -424.477692   2055.745361  -1620.003418     19.256195
    7249           0      -424.477692   2055.745361  -1980.003540     19.407423
    7250           0      -424.477692   2055.745361  -2340.003906     19.754087
    7251           0      -424.477692   2055.745361  -2700.003906     20.328369
    7252           0      -424.477692   2055.745361  -3060.003418     21.123144
    7253           0      -424.477692   2055.745361  -3420.003418     22.143566
    7254           0      -424.477692   2055.745361  -3780.003418     23.381519
    7255           0      -424.477692   2055.745361  -4140.003906     24.829578
    7256           0      -424.477692   2055.745361  -4500.003906     26.477165
    7257           0      -424.477692   2055.745361  -4860.003906     28.312826
    7258           0      -424.477692   2055.745361  -5220.003906     30.324656
    7259           0      -424.477692   2055.745361  -5580.003906     32.500694
    7260           0      -424.477692   2055.745361  -5940.003906     34.830006
    7261           0      -424.477692   2055.745361  -6300.003906     37.303131
    7262           0      -424.477692   2055.745361  -6660.003906     39.912643
    7263           0      -424.477692   2055.745361  -7020.003906     42.653000
    7264           0      -424.477692   2055.745361  -7380.003906     45.520287
    7265           0      -424.477692   2055.745361  -7740.003906     48.511692
    7266           0      -424.477692   2055.745361  -8100.003906     51.625038
    7267           0      -424.477692   2055.745361  -8460.003906     54.858440
    7268           0      -424.477692   2055.745361  -8820.003906     58.210037
    7269           0      -424.477692   2055.745361  -9180.003906     61.677830
    7270           0      -424.477692   2055.745361  -9540.003906     65.259262
    7271           0      -424.477692   2055.745361  -9900.003906     68.951721
    7272           0      -424.477692   2055.745361  -10260.00390     72.751305
    7273           0      -424.477692   2055.745361  -10620.00390     76.654648
    7274           0      -424.477692   2055.745361  -10980.00390     80.656357
    7275           0      -424.477692   2055.745361  -11340.00390     84.751877
    7276           0      -424.477692   2055.745361  -11700.00390     88.940308
    7277           0      -424.477692   2055.745361  -12060.00390     93.196815
    7278           0      -424.477692   2055.745361  -12420.00390     97.595116
    7279           0      -424.477692   2055.745361  -12780.00390    101.864311
    7280           0      -424.477692   2055.745361  -13140.00390    106.866089
    7281           0      -424.477692   2055.745361  -13500.00390    109.911682
    7282           0      -424.477692   2055.745361  -13860.00390    119.013260
    7283           0      -424.477692   2055.745361  -14220.00293    112.568626
    7284           0      -543.290527   2027.586182   -180.003326     21.023520
    7285           0      -543.290527   2027.586182   -540.003357     20.930845
    7286           0      -543.290527   2027.586182   -900.003418     20.559608
    7287           0      -543.290527   2027.586182  -1260.003418     20.428703
    7288           0      -543.290527   2027.586182  -1620.003418     20.404018
    7289           0      -543.290527   2027.586182  -1980.003418     20.556707
    7290           0      -543.290527   2027.586182  -2340.003418     20.868050
    7291           0      -543.290527   2027.586182  -2700.003418     21.369471
    7292           0      -543.290527   2027.586182  -3060.003418     22.052588
    7293           0      -543.290527   2027.586182  -3420.003418     22.928656
    7294           0      -543.290527   2027.586182  -3780.003662     23.992947
    7295           0      -543.290527   2027.586182  -4140.003418     25.245474
    7296           0      -543.290527   2027.586182  -4500.003906     26.680937
    7297           0      -543.290527   2027.586182  -4860.003906     28.294056
    7298           0      -543.290588   2027.586182  -5220.003906     30.078169
    7299           0      -543.290588   2027.586182  -5580.003418     32.027096
    7300           0      -543.290588   2027.586182  -5940.003418     34.135742
    7301           0      -543.290588   2027.586182  -6300.003906     36.400585
    7302           0      -543.290588   2027.586182  -6660.003906     38.819454
    7303           0      -543.290588   2027.586182  -7020.003906     41.390873
    7304           0      -543.290588   2027.586182  -7380.003418     44.113232
    7305           0      -543.290588   2027.586182  -7740.003906     46.984177
    7306           0      -543.290588   2027.586182  -8100.003906     50.000149
    7307           0      -543.290588   2027.586182  -8460.003906     53.156475
    7308           0      -543.290588   2027.586182  -8820.003906     56.447468
    7309           0      -543.290588   2027.586182  -9180.003906     59.867092
    7310           0      -543.290588   2027.586182  -9540.002930     63.408810
    7311           0      -543.290588   2027.586182  -9900.003906     67.066292
    7312           0      -543.290588   2027.586182  -10260.00390     70.833153
    7313           0      -543.290588   2027.586182  -10620.00390     74.702972
    7314           0      -543.290588   2027.586182  -10980.00390     78.669685
    7315           0      -543.290588   2027.586182  -11340.00390     82.724731
    7316           0      -543.290588   2027.586182  -11700.00390     86.870255
    7317           0      -543.290588   2027.586182  -12060.00390     91.072853
    7318           0      -543.290588   2027.586182  -12420.00390     95.417473
    7319           0      -543.290588   2027.586182  -12780.00390     99.617317
    7320           0      -543.290588   2027.586182  -13140.00390    104.542130
    7321           0      -543.290588   2027.586182  -13500.00390    107.541817
    7322           0      -543.290588   2027.586182  -13860.00390    116.419189
    7323           0      -543.290527   2027.586182  -14220.00293    110.247337
    7324           0      -660.265015   1992.566284   -180.003326     21.967525
    7325           0      -660.265015   1992.566284   -540.003357     21.915808
    7326           0      -660.265015   1992.566284   -900.003418     21.586235
    7327           0      -660.265015   1992.566284  -1260.003418     21.469765
    7328           0      -660.265015   1992.566284  -1620.003418     21.460825
    7329           0      -660.265015   1992.566284  -1980.003540     21.607164
    7330           0      -660.265015   1992.566284  -2340.003662     21.897560
    7331           0      -660.265015   1992.566284  -2700.003662     22.358404
    7332           0      -660.265015   1992.566284  -3060.003418     22.979759
    7333           0      -660.265015   1992.566284  -3420.003906     23.773443
    7334           0      -660.265015   1992.566284  -3780.003906     24.733101
    7335           0      -660.265015   1992.566284  -4140.003906     25.859787
    7336           0      -660.265015   1992.566284  -4500.003906     27.147873
    7337           0      -660.265015   1992.566284  -4860.003906     28.593994
    7338           0      -660.265015   1992.566284  -5220.003906     30.194386
    7339           0      -660.265015   1992.566284  -5580.003906     31.948183
    7340           0      -660.265015   1992.566284  -5940.003418     33.856766
    7341           0      -660.265015   1992.566284  -6300.003906     35.923740
    7342           0      -660.265015   1992.566284  -6660.003906     38.153309
    7343           0      -660.265015   1992.566284  -7020.003906     40.549091
    7344           0      -660.265015   1992.566284  -7380.003906     43.112602
    7345           0      -660.265015   1992.566284  -7740.003906     45.842686
    7346           0      -660.265015   1992.566284  -8100.003418     48.735073
    7347           0      -660.265015   1992.566284  -8460.003906     51.782772
    7348           0      -660.265015   1992.566284  -8820.003906     54.976784
    7349           0      -660.265015   1992.566284  -9180.003906     58.306908
    7350           0      -660.265015   1992.566284  -9540.003906     61.763149
    7351           0      -660.265015   1992.566284  -9900.003906     65.335251
    7352           0      -660.265015   1992.566284  -10260.00390     69.014931
    7353           0      -660.265015   1992.566284  -10620.00390     72.793571
    7354           0      -660.265015   1992.566284  -10980.00390     76.665161
    7355           0      -660.265015   1992.566284  -11340.00390     80.618225
    7356           0      -660.265015   1992.566284  -11700.00390     84.658783
    7357           0      -660.265015   1992.566284  -12060.00390     88.745247
    7358           0      -660.265015   1992.566284  -12420.00390     92.973495
    7359           0      -660.265015   1992.566284  -12780.00390     97.043465
    7360           0      -660.265015   1992.566284  -13140.00390    101.824219
    7361           0      -660.265015   1992.566284  -13500.00390    104.729523
    7362           0      -660.265015   1992.566284  -13860.00390    113.284081
    7363           0      -660.265015   1992.566284  -14220.00293    107.407478
    7364           0      -775.005371   1950.804199   -180.003326     23.065596
    7365           0      -775.005371   1950.804199   -540.003357     23.016363
    7366           0      -775.005371   1950.804199   -900.003418     22.654741
    7367           0      -775.005371   1950.804199  -1260.003418     22.500597
    7368           0      -775.005371   1950.804199  -1620.003418     22.471947
    7369           0      -775.005371   1950.804199  -1980.003540     22.591372
    7370           0      -775.005371   1950.804199  -2340.003906     22.862965
    7371           0      -775.005371   1950.804199  -2700.003906     23.304523
    7372           0      -775.005371   1950.804199  -3060.003418     23.906349
    7373           0      -775.005371   1950.804199  -3420.003418     24.676687
    7374           0      -775.005371   1950.804199  -3780.003418     25.604177
    7375           0      -775.005371   1950.804199  -4140.003906     26.685350
    7376           0      -775.005371   1950.804199  -4500.003906     27.909555
    7377           0      -775.005371   1950.804199  -4860.003906     29.271141
    7378           0      -775.005371   1950.804199  -5220.003906     30.766237
    7379           0      -775.005371   1950.804199  -5580.003906     32.396431
    7380           0      -775.005371   1950.804199  -5940.003906     34.166752
    7381           0      -775.005371   1950.804199  -6300.003906     36.084702
    7382           0      -775.005371   1950.804199  -6660.003906     38.158192
    7383           0      -775.005371   1950.804199  -7020.003906     40.393761
    7384           0      -775.005371   1950.804199  -7380.003906     42.795624
    7385           0      -775.005371   1950.804199  -7740.003906     45.364380
    7386           0      -775.005371   1950.804199  -8100.003906     48.097366
    7387           0      -775.005371   1950.804199  -8460.003906     50.987785
    7388           0      -775.005371   1950.804199  -8820.003906     54.026592
    7389           0      -775.005371   1950.804199  -9180.003906     57.201664
    7390           0      -775.005371   1950.804199  -9540.003906     60.501507
    7391           0      -775.005371   1950.804199  -9900.003906     63.913551
    7392           0      -775.005371   1950.804199  -10260.00390     67.427269
    7393           0      -775.005371   1950.804199  -10620.00390     71.033699
    7394           0      -775.005371   1950.804199  -10980.00390     74.727005
    7395           0      -775.005371   1950.804199  -11340.00390     78.493622
    7396           0      -775.005371   1950.804199  -11700.00390     82.344666
    7397           0      -775.005371   1950.804199  -12060.00390     86.231041
    7398           0      -775.005371   1950.804199  -12420.00390     90.257942
    7399           0      -775.005371   1950.804199  -12780.00390     94.118408
    7400           0      -775.005371   1950.804199  -13140.00390     98.664528
    7401           0      -775.005371   1950.804199  -13500.00390    101.412712
    7402           0      -775.005371   1950.804199  -13860.00390    109.518044
    7403           0      -775.005371   1950.804199  -14220.00293    103.956665
    7404           0      -887.123413   1902.441162   -180.003326     24.424208
    7405           0      -887.123413   1902.441162   -540.003357     24.344215
    7406           0      -887.123413   1902.441162   -900.003418     23.859858
    7407           0      -887.123413   1902.441162  -1260.003418     23.607700
    7408           0      -887.123413   1902.441162  -1620.003418     23.508759
    7409           0      -887.123413   1902.441162  -1980.003418     23.563854
    7410           0      -887.123413   1902.441162  -2340.003418     23.798943
    7411           0      -887.123413   1902.441162  -2700.003418     24.220467
    7412           0      -887.123413   1902.441162  -3060.003418     24.822269
    7413           0      -887.123413   1902.441162  -3420.003418     25.606150
    7414           0      -887.123413   1902.441162  -3780.003662     26.554613
    7415           0      -887.123413   1902.441162  -4140.003418     27.656767
    7416           0      -887.123413   1902.441162  -4500.003906     28.895363
    7417           0      -887.123413   1902.441162  -4860.003906     30.260569
    7418           0      -887.123413   1902.441162  -5220.003906     31.745756
    7419           0      -887.123413   1902.441162  -5580.003418     33.350323
    7420           0      -887.123413   1902.441162  -5940.003418     35.076466
    7421           0      -887.123413   1902.441162  -6300.003906     36.928314
    7422           0      -887.123413   1902.441162  -6660.003906     38.910503
    7423           0      -887.123413   1902.441162  -7020.003906     41.027489
    7424           0      -887.123413   1902.441162  -7380.003418     43.283203
    7425           0      -887.123413   1902.441162  -7740.003906     45.680264
    7426           0      -887.123413   1902.441162  -8100.003906     48.219494
    7427           0      -887.123413   1902.441162  -8460.003906     50.898983
    7428           0      -887.123413   1902.441162  -8820.003906     53.713757
    7429           0      -887.123474   1902.441162  -9180.003906     56.655758
    7430           0      -887.123474   1902.441162  -9540.002930     59.714451
    7431           0      -887.123474   1902.441162  -9900.003906     62.878716
    7432           0      -887.123474   1902.441162  -10260.00390     66.136459
    7433           0      -887.123474   1902.441162  -10620.00390     69.478554
    7434           0      -887.123474   1902.441162  -10980.00390     72.900101
    7435           0      -887.123474   1902.441162  -11340.00390     76.385765
    7436           0      -887.123474   1902.441162  -11700.00390     79.950966
    7437           0      -887.123474   1902.441162  -12060.00390     83.542725
    7438           0      -887.123474   1902.441162  -12420.00390     87.270126
    7439           0      -887.123474   1902.441162  -12780.00390     90.831322
    7440           0      -887.123535   1902.441162  -13140.00390     95.038239
    7441           0      -887.123535   1902.441162  -13500.00390     97.558250
    7442           0      -887.123535   1902.441162  -13860.00390    105.071609
    7443           0      -887.123474   1902.441162  -14220.00293     99.844048
    7444           0      -996.239624   1847.640869   -180.003326     26.160078
    7445           0      -996.239624   1847.640869   -540.003357     26.028387
    7446           0      -996.239624   1847.640869   -900.003418     25.315821
    7447           0      -996.239624   1847.640869  -1260.003418     24.901657
    7448           0      -996.239624   1847.640869  -1620.003418     24.665239
    7449           0      -996.239624   1847.640869  -1980.003540     24.600405
    7450           0      -996.239624   1847.640869  -2340.003662     24.756149
    7451           0      -996.239624   1847.640869  -2700.003662     25.127457
    7452           0      -996.239624   1847.640869  -3060.003418     25.714952
    7453           0      -996.239624   1847.640869  -3420.003906     26.512829
    7454           0      -996.239624   1847.640869  -3780.003906     27.498667
    7455           0      -996.239685   1847.640869  -4140.003906     28.654844
    7456           0      -996.239685   1847.640869  -4500.003906     29.959293
    7457           0      -996.239685   1847.640869  -4860.003906     31.398180
    7458           0      -996.239685   1847.640869  -5220.003906     32.959419
    7459           0      -996.239685   1847.640869  -5580.003906     34.634445
    7460           0      -996.239685   1847.640869  -5940.003418     36.414646
    7461           0      -996.239685   1847.640869  -6300.003906     38.292530
    7462           0      -996.239685   1847.640869  -6660.003906     40.261719
    7463           0      -996.239685   1847.640869  -7020.003906     42.318844
    7464           0      -996.239685   1847.640869  -7380.003906     44.463398
    7465           0      -996.239685   1847.640869  -7740.003906     46.698532
    7466           0      -996.239685   1847.640869  -8100.003418     49.028812
    7467           0      -996.239685   1847.640869  -8460.003906     51.459946
    7468           0      -996.239685   1847.640869  -8820.003906     53.994915
    7469           0      -996.239746   1847.640869  -9180.003906     56.634804
    7470           0      -996.239746   1847.640869  -9540.003906     59.375065
    7471           0      -996.239746   1847.640869  -9900.003906     62.209026
    7472           0      -996.239746   1847.640869  -10260.00390     65.128059
    7473           0      -996.239746   1847.640869  -10620.00390     68.119385
    7474           0      -996.239746   1847.640869  -10980.00390     71.181931
    7475           0      -996.239746   1847.640869  -11340.00390     74.298004
    7476           0      -996.239746   1847.640869  -11700.00390     77.484718
    7477           0      -996.239746   1847.640869  -12060.00390     80.690567
    7478           0      -996.239746   1847.640869  -12420.00390     84.021469
    7479           0      -996.239746   1847.640869  -12780.00390     87.194931
    7480           0      -996.239746   1847.640869  -13140.00390     90.957184
    7481           0      -996.239746   1847.640869  -13500.00390     93.179207
    7482           0      -996.239746   1847.640869  -13860.00390     99.956070
    7483           0      -996.239685   1847.640869  -14220.00293     95.081635
    7484           0     -1101.984863   1786.588867   -180.003326     28.368563
    7485           0     -1101.984863   1786.588867   -540.003357     28.183741
    7486           0     -1101.984863   1786.588867   -900.003418     27.132376
    7487           0     -1101.984863   1786.588867  -1260.003418     26.496695
    7488           0     -1101.984863   1786.588867  -1620.003418     26.044819
    7489           0     -1101.984863   1786.588867  -1980.003540     25.791170
    7490           0     -1101.984863   1786.588867  -2340.003906     25.802128
    7491           0     -1101.984863   1786.588867  -2700.003906     26.063980
    7492           0     -1101.984863   1786.588867  -3060.003418     26.587030
    7493           0     -1101.984863   1786.588867  -3420.003418     27.358700
    7494           0     -1101.984863   1786.588867  -3780.003418     28.355818
    7495           0     -1101.984863   1786.588867  -4140.003906     29.557859
    7496           0     -1101.984863   1786.588867  -4500.003906     30.941591
    7497           0     -1101.984863   1786.588867  -4860.003906     32.488903
    7498           0     -1101.984863   1786.588867  -5220.003906     34.178600
    7499           0     -1101.984863   1786.588867  -5580.003906     35.987946
    7500           0     -1101.984863   1786.588867  -5940.003906     37.891354
    7501           0     -1101.984863   1786.588867  -6300.003906     39.864063
    7502           0     -1101.984863   1786.588867  -6660.003906     41.884712
    7503           0     -1101.984863   1786.588867  -7020.003906     43.938244
    7504           0     -1101.984863   1786.588867  -7380.003906     46.017139
    7505           0     -1101.984863   1786.588867  -7740.003906     48.121559
    7506           0     -1101.984863   1786.588867  -8100.003906     50.258148
    7507           0     -1101.984863   1786.588867  -8460.003906     52.437820
    7508           0     -1101.984863   1786.588867  -8820.003906     54.672886
    7509           0     -1101.984863   1786.588867  -9180.003906     56.973988
    7510           0     -1101.984863   1786.588867  -9540.003906     59.347733
    7511           0     -1101.984863   1786.588867  -9900.003906     61.794666
    7512           0     -1101.984863   1786.588867  -10260.00390     64.313164
    7513           0     -1101.984863   1786.588867  -10620.00390     66.891106
    7514           0     -1101.984863   1786.588867  -10980.00390     69.527924
    7515           0     -1101.984863   1786.588867  -11340.00390     72.205826
    7516           0     -1101.984863   1786.588867  -11700.00390     74.941811
    7517           0     -1101.984863   1786.588867  -12060.00390     77.687439
    7518           0     -1101.984863   1786.588867  -12420.00390     80.542076
    7519           0     -1101.984863   1786.588867  -12780.00390     83.253517
    7520           0     -1101.984863   1786.588867  -13140.00390     86.480263
    7521           0     -1101.984863   1786.588867  -13500.00390     88.346802
    7522           0     -1101.984863   1786.588867  -13860.00390     94.259819
    7523           0     -1101.984863   1786.588867  -14220.00293     89.761353
    7524           0     -1204.001465   1719.491333   -180.003326     31.075083
    7525           0     -1204.001465   1719.491333   -540.003357     30.858849
    7526           0     -1204.001465   1719.491333   -900.003418     29.370731
    7527           0     -1204.001465   1719.491333  -1260.003418     28.473864
    7528           0     -1204.001465   1719.491333  -1620.003418     27.731924
    7529           0     -1204.001465   1719.491333  -1980.003418     27.222925
    7530           0     -1204.001465   1719.491333  -2340.003418     27.014320
    7531           0     -1204.001465   1719.491333  -2700.003418     27.090731
    7532           0     -1204.001465   1719.491333  -3060.003418     27.473457
    7533           0     -1204.001465   1719.491333  -3420.003418     28.147007
    7534           0     -1204.001465   1719.491333  -3780.003662     29.094604
    7535           0     -1204.001465   1719.491333  -4140.003418     30.298532
    7536           0     -1204.001465   1719.491333  -4500.003906     31.737200
    7537           0     -1204.001465   1719.491333  -4860.003906     33.385773
    7538           0     -1204.001465   1719.491333  -5220.003906     35.209251
    7539           0     -1204.001465   1719.491333  -5580.003418     37.166157
    7540           0     -1204.001465   1719.491333  -5940.003418     39.211540
    7541           0     -1204.001465   1719.491333  -6300.003906     41.302986
    7542           0     -1204.001465   1719.491333  -6660.003906     43.404675
    7543           0     -1204.001465   1719.491333  -7020.003906     45.490116
    7544           0     -1204.001465   1719.491333  -7380.003418     47.543606
    7545           0     -1204.001465   1719.491333  -7740.003906     49.559731
    7546           0     -1204.001465   1719.491333  -8100.003906     51.542927
    7547           0     -1204.001465   1719.491333  -8460.003906     53.504677
    7548           0     -1204.001465   1719.491333  -8820.003906     55.462021
    7549           0     -1204.001465   1719.491333  -9180.003906     57.432606
    7550           0     -1204.001465   1719.491333  -9540.002930     59.433529
    7551           0     -1204.001465   1719.491333  -9900.003906     61.475189
    7552           0     -1204.001465   1719.491333  -10260.00390     63.564583
    7553           0     -1204.001465   1719.491333  -10620.00390     65.696899
    7554           0     -1204.001465   1719.491333  -10980.00390     67.872101
    7555           0     -1204.001465   1719.491333  -11340.00390     70.073822
    7556           0     -1204.001465   1719.491333  -11700.00390     72.317589
    7557           0     -1204.001465   1719.491333  -12060.00390     74.559929
    7558           0     -1204.001465   1719.491333  -12420.00390     76.887817
    7559           0     -1204.001465   1719.491333  -12780.00390     79.092239
    7560           0     -1204.001465   1719.491333  -13140.00390     81.722374
    7561           0     -1204.001465   1719.491333  -13500.00390     83.199272
    7562           0     -1204.001465   1719.491333  -13860.00390     88.161400
    7563           0     -1204.001465   1719.491333  -14220.00293     84.059937
    7564           0     -1301.944092   1646.575928   -180.003326     34.200989
    7565           0     -1301.944092   1646.575928   -540.003357     33.983635
    7566           0     -1301.944092   1646.575928   -900.003418     32.004639
    7567           0     -1301.944092   1646.575928  -1260.003418     30.839701
    7568           0     -1301.944092   1646.575928  -1620.003418     29.760296
    7569           0     -1301.944092   1646.575928  -1980.003540     28.955065
    7570           0     -1301.944092   1646.575928  -2340.003662     28.467567
    7571           0     -1301.944092   1646.575928  -2700.003662     28.290840
    7572           0     -1301.944092   1646.575928  -3060.003418     28.455704
    7573           0     -1301.944092   1646.575928  -3420.003906     28.951281
    7574           0     -1301.944092   1646.575928  -3780.003906     29.775713
    7575           0     -1301.944092   1646.575928  -4140.003906     30.919680
    7576           0     -1301.944092   1646.575928  -4500.003906     32.363174
    7577           0     -1301.944092   1646.575928  -4860.003906     34.070480
    7578           0     -1301.944092   1646.575928  -5220.003906     35.988842
    7579           0     -1301.944092   1646.575928  -5580.003906     38.057095
    7580           0     -1301.944092   1646.575928  -5940.003418     40.212799
    7581           0     -1301.944092   1646.575928  -6300.003906     42.399624
    7582           0     -1301.944092   1646.575928  -6660.003906     44.570854
    7583           0     -1301.944092   1646.575928  -7020.003906     46.691410
    7584           0     -1301.944092   1646.575928  -7380.003906     48.737961
    7585           0     -1301.944092   1646.575928  -7740.003906     50.698601
    7586           0     -1301.944092   1646.575928  -8100.003418     52.571781
    7587           0     -1301.944092   1646.575928  -8460.003906     54.365101
    7588           0     -1301.944092   1646.575928  -8820.003906     56.093479
    7589           0     -1301.944092   1646.575928  -9180.003906     57.776642
    7590           0     -1301.944092   1646.575928  -9540.003906     59.436501
    7591           0     -1301.944092   1646.575928  -9900.003906     61.092426
    7592           0     -1301.944092   1646.575928  -10260.00390     62.760338
    7593           0     -1301.944092   1646.575928  -10620.00390     64.446266
    7594           0     -1301.944092   1646.575928  -10980.00390     66.155373
    7595           0     -1301.944092   1646.575928  -11340.00390     67.876236
    7596           0     -1301.944092   1646.575928  -11700.00390     69.620743
    7597           0     -1301.944092   1646.575928  -12060.00390     71.355339
    7598           0     -1301.944092   1646.575928  -12420.00390     73.144547
    7599           0     -1301.944092   1646.575928  -12780.00390     74.837364
    7600           0     -1301.944092   1646.575928  -13140.00390     76.851082
    7601           0     -1301.944092   1646.575928  -13500.00390     77.940826
    7602           0     -1301.944092   1646.575928  -13860.00390     81.917648
    7603           0     -1301.944092   1646.575928  -14220.00293     78.243607
    7604           0     -1395.481201   1568.088745   -180.003326     37.533321
    7605           0     -1395.481201   1568.088745   -540.003357     37.357224
    7606           0     -1395.481201   1568.088745   -900.003418     34.896988
    7607           0     -1395.481201   1568.088745  -1260.003418     33.501617
    7608           0     -1395.481201   1568.088745  -1620.003418     32.087185
    7609           0     -1395.481201   1568.088745  -1980.003540     30.993624
    7610           0     -1395.481201   1568.088745  -2340.003906     30.211740
    7611           0     -1395.481201   1568.088745  -2700.003906     29.753572
    7612           0     -1395.481201   1568.088745  -3060.003418     29.655703
    7613           0     -1395.481201   1568.088745  -3420.003418     29.921762
    7614           0     -1395.481201   1568.088745  -3780.003418     30.571905
    7615           0     -1395.481201   1568.088745  -4140.003906     31.607576
    7616           0     -1395.481201   1568.088745  -4500.003906     33.007160
    7617           0     -1395.481201   1568.088745  -4860.003906     34.719925
    7618           0     -1395.481201   1568.088745  -5220.003906     36.674389
    7619           0     -1395.481201   1568.088745  -5580.003906     38.791866
    7620           0     -1395.481201   1568.088745  -5940.003906     40.996635
    7621           0     -1395.481201   1568.088745  -6300.003906     43.222820
    7622           0     -1395.481201   1568.088745  -6660.003906     45.416870
    7623           0     -1395.481201   1568.088745  -7020.003906     47.538128
    7624           0     -1395.481201   1568.088745  -7380.003906     49.558056
    7625           0     -1395.481201   1568.088745  -7740.003906     51.459373
    7626           0     -1395.481201   1568.088745  -8100.003906     53.234852
    7627           0     -1395.481201   1568.088745  -8460.003906     54.886448
    7628           0     -1395.481201   1568.088745  -8820.003906     56.424110
    7629           0     -1395.481201   1568.088745  -9180.003906     57.864422
    7630           0     -1395.481201   1568.088745  -9540.003906     59.228905
    7631           0     -1395.481201   1568.088745  -9900.003906     60.540314
    7632           0     -1395.481201   1568.088745  -10260.00390     61.821331
    7633           0     -1395.481201   1568.088745  -10620.00390     63.087627
    7634           0     -1395.481201   1568.088745  -10980.00390     64.353455
    7635           0     -1395.481201   1568.088745  -11340.00390     65.616554
    7636           0     -1395.481201   1568.088745  -11700.00390     66.888046
    7637           0     -1395.481201   1568.088745  -12060.00390     68.146088
    7638           0     -1395.481201   1568.088745  -12420.00390     69.429398
    7639           0     -1395.481201   1568.088745  -12780.00390     70.647041
    7640           0     -1395.481201   1568.088745  -13140.00390     72.079575
    7641           0     -1395.481201   1568.088745  -13500.00390     72.818474
    7642           0     -1395.481201   1568.088745  -13860.00390     75.856255
    7643           0     -1395.481201   1568.088745  -14220.00293     72.627396
    7644           0     -1484.296631   1484.295654   -180.003326     40.753162
    7645           0     -1484.296631   1484.295654   -540.003357     40.659935
    7646           0     -1484.296631   1484.295654   -900.003418     37.809292
    7647           0     -1484.296631   1484.295654  -1260.003418     36.268044
    7648           0     -1484.296631   1484.295654  -1620.003418     34.585476
    7649           0     -1484.296631   1484.295654  -1980.003418     33.272797
    7650           0     -1484.296631   1484.295654  -2340.003418     32.244293
    7651           0     -1484.296631   1484.295654  -2700.003418     31.540487
    7652           0     -1484.296631   1484.295654  -3060.003418     31.201370
    7653           0     -1484.296631   1484.295654  -3420.003418     31.255568
    7654           0     -1484.296631   1484.295654  -3780.003662     31.746826
    7655           0     -1484.296631   1484.295654  -4140.003418     32.683422
    7656           0     -1484.296631   1484.295654  -4500.003906     34.035645
    7657           0     -1484.296631   1484.295654  -4860.003906     35.734520
    7658           0     -1484.296631   1484.295654  -5220.003906     37.690502
    7659           0     -1484.296631   1484.295654  -5580.003418     39.809742
    7660           0     -1484.296631   1484.295654  -5940.003418     42.005943
    7661           0     -1484.296631   1484.295654  -6300.003906     44.206001
    7662           0     -1484.296631   1484.295654  -6660.003906     46.351982
    7663           0     -1484.296631   1484.295654  -7020.003906     48.400570
    7664           0     -1484.296631   1484.295654  -7380.003418     50.321960
    7665           0     -1484.296631   1484.295654  -7740.003906     52.098042
    7666           0     -1484.296631   1484.295654  -8100.003906     53.721035
    7667           0     -1484.296631   1484.295654  -8460.003906     55.191723
    7668           0     -1484.296631   1484.295654  -8820.003906     56.518513
    7669           0     -1484.296631   1484.295654  -9180.003906     57.715557
    7670           0     -1484.296631   1484.295654  -9540.002930     58.802322
    7671           0     -1484.296631   1484.295654  -9900.003906     59.800724
    7672           0     -1484.296631   1484.295776  -10260.00390     60.734791
    7673           0     -1484.296631   1484.295776  -10620.00390     61.624569
    7674           0     -1484.296631   1484.295776  -10980.00390     62.490978
    7675           0     -1484.296631   1484.295776  -11340.00390     63.342457
    7676           0     -1484.296631   1484.295776  -11700.00390     64.192879
    7677           0     -1484.296631   1484.295776  -12060.00390     65.035973
    7678           0     -1484.296631   1484.295776  -12420.00390     65.884384
    7679           0     -1484.296631   1484.295776  -12780.00390     66.704948
    7680           0     -1484.296631   1484.295776  -13140.00390     67.642921
    7681           0     -1484.296631   1484.295776  -13500.00390     68.107414
    7682           0     -1484.296631   1484.295776  -13860.00390     70.328453
    7683           0     -1484.296631   1484.295654  -14220.00293     67.554100
    7684           0     -1568.089478   1395.480347   -180.003326     43.483784
    7685           0     -1568.089478   1395.480347   -540.003357     43.501110
    7686           0     -1568.089478   1395.480347   -900.003418     40.439037
    7687           0     -1568.089478   1395.480347  -1260.003418     38.879818
    7688           0     -1568.089478   1395.480347  -1620.003418     37.062275
    7689           0     -1568.089478   1395.480347  -1980.003540     35.658772
    7690           0     -1568.089478   1395.480347  -2340.003662     34.496582
    7691           0     -1568.089478   1395.480347  -2700.003662     33.655998
    7692           0     -1568.089478   1395.480347  -3060.003418     33.184929
    7693           0     -1568.089478   1395.480347  -3420.003906     33.145821
    7694           0     -1568.089478   1395.480347  -3780.003906     33.597820
    7695           0     -1568.089478   1395.480347  -4140.003906     34.543526
    7696           0     -1568.089478   1395.480347  -4500.003906     35.934345
    7697           0     -1568.089478   1395.480347  -4860.003906     37.678295
    7698           0     -1568.089478   1395.480347  -5220.003906     39.666176
    7699           0     -1568.089478   1395.480347  -5580.003906     41.788551
    7700           0     -1568.089478   1395.480347  -5940.003418     43.948528
    7701           0     -1568.089478   1395.480347  -6300.003906     46.066475
    7702           0     -1568.089478   1395.480347  -6660.003906     48.081974
    7703           0     -1568.089478   1395.480347  -7020.003906     49.952641
    7704           0     -1568.089478   1395.480347  -7380.003906     51.652630
    7705           0     -1568.089478   1395.480347  -7740.003906     53.170219
    7706           0     -1568.089478   1395.480347  -8100.003418     54.505421
    7707           0     -1568.089478   1395.480347  -8460.003906     55.667675
    7708           0     -1568.089478   1395.480347  -8820.003906     56.673050
    7709           0     -1568.089478   1395.480347  -9180.003906     57.542408
    7710           0     -1568.089478   1395.480347  -9540.003906     58.298313
    7711           0     -1568.089478   1395.480347  -9900.003906     58.964676
    7712           0     -1568.089478   1395.480347  -10260.00390     59.564011
    7713           0     -1568.089478   1395.480347  -10620.00390     60.114967
    7714           0     -1568.089478   1395.480347  -10980.00390     60.636105
    7715           0     -1568.089478   1395.480347  -11340.00390     61.140820
    7716           0     -1568.089478   1395.480347  -11700.00390     61.642124
    7717           0     -1568.089478   1395.480347  -12060.00390     62.153858
    7718           0     -1568.089478   1395.480347  -12420.00390     62.665497
    7719           0     -1568.089478   1395.480347  -12780.00390     63.198841
    7720           0     -1568.089478   1395.480347  -13140.00390     63.771542
    7721           0     -1568.089478   1395.480347  -13500.00390     64.070496
    7722           0     -1568.089478   1395.480347  -13860.00390     65.665039
    7723           0     -1568.089478   1395.480347  -14220.00293     63.341522
    7724           0     -1646.576416   1301.943115   -180.003326     45.341766
    7725           0     -1646.576416   1301.943115   -540.003357     45.487930
    7726           0     -1646.576416   1301.943115   -900.003418     42.473103
    7727           0     -1646.576416   1301.943115  -1260.003418     41.058380
    7728           0     -1646.576416   1301.943115  -1620.003418     39.294041
    7729           0     -1646.576416   1301.943115  -1980.003540     37.969669
    7730           0     -1646.576416   1301.943115  -2340.003906     36.838585
    7731           0     -1646.576416   1301.943115  -2700.003906     36.037617
    7732           0     -1646.576416   1301.943115  -3060.003418     35.635540
    7733           0     -1646.576416   1301.943115  -3420.003418     35.727322
    7734           0     -1646.576416   1301.943115  -3780.003418     36.365513
    7735           0     -1646.576416   1301.943115  -4140.003906     37.525963
    7736           0     -1646.576416   1301.943115  -4500.003906     39.126232
    7737           0     -1646.576416   1301.943115  -4860.003906     41.044201
    7738           0     -1646.576416   1301.943115  -5220.003906     43.147835
    7739           0     -1646.576416   1301.943115  -5580.003906     45.312332
    7740           0     -1646.576416   1301.943115  -5940.003906     47.432133
    7741           0     -1646.576416   1301.943115  -6300.003906     49.424553
    7742           0     -1646.576416   1301.943115  -6660.003906     51.230595
    7743           0     -1646.576416   1301.943115  -7020.003906     52.813274
    7744           0     -1646.576416   1301.943115  -7380.003906     54.155243
    7745           0     -1646.576416   1301.943115  -7740.003906     55.256550
    7746           0     -1646.576416   1301.943115  -8100.003906     56.131325
    7747           0     -1646.576416   1301.943115  -8460.003906     56.805725
    7748           0     -1646.576416   1301.943115  -8820.003906     57.313629
    7749           0     -1646.576416   1301.943115  -9180.003906     57.694416
    7750           0     -1646.576416   1301.943115  -9540.003906     57.987331
    7751           0     -1646.576416   1301.943115  -9900.003906     58.228020
    7752           0     -1646.576416   1301.943115  -10260.00390     58.446514
    7753           0     -1646.576416   1301.943115  -10620.00390     58.661072
    7754           0     -1646.576416   1301.943115  -10980.00390     58.882366
    7755           0     -1646.576416   1301.943115  -11340.00390     59.115196
    7756           0     -1646.576416   1301.943115  -11700.00390     59.359104
    7757           0     -1646.576416   1301.943115  -12060.00390     59.639690
    7758           0     -1646.576416   1301.943115  -12420.00390     59.930164
    7759           0     -1646.576416   1301.943115  -12780.00390     60.302326
    7760           0     -1646.576416   1301.943115  -13140.00390     60.666721
    7761           0     -1646.576416   1301.943115  -13500.00390     60.926556
    7762           0     -1646.576416   1301.943115  -13860.00390     62.135715
    7763           0     -1646.576416   1301.943115  -14220.00293     60.234131
    7764           0     -1719.492065   1204.000610   -180.003326     46.020115
    7765           0     -1719.492065   1204.000610   -540.003357     46.304466
    7766           0     -1719.492065   1204.000610   -900.003418     43.655674
    7767           0     -1719.492065   1204.000610  -1260.003418     42.566040
    7768           0     -1719.492065   1204.000610  -1620.003418     41.072445
    7769           0     -1719.492065   1204.000610  -1980.003418     40.013973
    7770           0     -1719.492065   1204.000610  -2340.003418     39.115406
    7771           0     -1719.492065   1204.000610  -2700.003418     38.591072
    7772           0     -1719.492065   1204.000610  -3060.003418     38.536385
    7773           0     -1719.492065   1204.000610  -3420.003418     39.051983
    7774           0     -1719.492065   1204.000610  -3780.003662     40.147495
    7775           0     -1719.492065   1204.000610  -4140.003418     41.747730
    7776           0     -1719.492065   1204.000610  -4500.003906     43.724682
    7777           0     -1719.492065   1204.000610  -4860.003906     45.924690
    7778           0     -1719.492065   1204.000610  -5220.003906     48.198540
    7779           0     -1719.492065   1204.000610  -5580.003418     50.415424
    7780           0     -1719.492065   1204.000610  -5940.003418     52.471767
    7781           0     -1719.492065   1204.000610  -6300.003906     54.290966
    7782           0     -1719.492065   1204.000610  -6660.003906     55.822815
    7783           0     -1719.492065   1204.000610  -7020.003906     57.039665
    7784           0     -1719.492065   1204.000610  -7380.003418     57.934570
    7785           0     -1719.492065   1204.000610  -7740.003906     58.518379
    7786           0     -1719.492065   1204.000610  -8100.003906     58.818165
    7787           0     -1719.492065   1204.000610  -8460.003906     58.874981
    7788           0     -1719.492065   1204.000610  -8820.003906     58.742161
    7789           0     -1719.492065   1204.000610  -9180.003906     58.481567
    7790           0     -1719.492065   1204.000610  -9540.002930     58.160088
    7791           0     -1719.492065   1204.000488  -9900.003906     57.839935
    7792           0     -1719.492065   1204.000488  -10260.00390     57.576122
    7793           0     -1719.492065   1204.000488  -10620.00390     57.404438
    7794           0     -1719.492065   1204.000488  -10980.00390     57.336235
    7795           0     -1719.492065   1204.000488  -11340.00390     57.363995
    7796           0     -1719.492065   1204.000488  -11700.00390     57.457035
    7797           0     -1719.492065   1204.000488  -12060.00390     57.627151
    7798           0     -1719.492065   1204.000488  -12420.00390     57.825920
    7799           0     -1719.492065   1204.000488  -12780.00390     58.169624
    7800           0     -1719.492065   1204.000488  -13140.00390     58.491379
    7801           0     -1719.492065   1204.000488  -13500.00390     58.844578
    7802           0     -1719.492065   1204.000488  -13860.00390     59.933800
    7803           0     -1719.492065   1204.000610  -14220.00293     58.397808
    7804           0     -1786.589355   1101.984009   -180.003326     45.402771
    7805           0     -1786.589355   1101.984009   -540.003357     45.811359
    7806           0     -1786.589355   1101.984009   -900.003418     43.873707
    7807           0     -1786.589355   1101.984009  -1260.003418     43.273769
    7808           0     -1786.589355   1101.984009  -1620.003418     42.261444
    7809           0     -1786.589355   1101.984009  -1980.003540     41.651447
    7810           0     -1786.589355   1101.984009  -2340.003662     41.221127
    7811           0     -1786.589355   1101.984009  -2700.003662     41.262245
    7812           0     -1786.589355   1101.984009  -3060.003418     41.864075
    7813           0     -1786.589355   1101.984009  -3420.003906     43.075630
    7814           0     -1786.589355   1101.984009  -3780.003906     44.826057
    7815           0     -1786.589355   1101.984009  -4140.003906     46.978939
    7816           0     -1786.589355   1101.984009  -4500.003906     49.366558
    7817           0     -1786.589355   1101.984009  -4860.003906     51.821754
    7818           0     -1786.589355   1101.984009  -5220.003906     54.199341
    7819           0     -1786.589355   1101.984009  -5580.003906     56.383835
    7820           0     -1786.589355   1101.984009  -5940.003418     58.290630
    7821           0     -1786.589355   1101.984009  -6300.003906     59.862301
    7822           0     -1786.589355   1101.984009  -6660.003906     61.065006
    7823           0     -1786.589355   1101.984009  -7020.003906     61.884178
    7824           0     -1786.589355   1101.984009  -7380.003906     62.322224
    7825           0     -1786.589355   1101.984009  -7740.003906     62.396317
    7826           0     -1786.589355   1101.984009  -8100.003418     62.138210
    7827           0     -1786.589355   1101.984009  -8460.003906     61.593723
    7828           0     -1786.589355   1101.984009  -8820.003906     60.823723
    7829           0     -1786.589355   1101.984009  -9180.003906     59.902740
    7830           0     -1786.589355   1101.984009  -9540.003906     58.918388
    7831           0     -1786.589355   1101.984009  -9900.003906     57.964893
    7832           0     -1786.589355   1101.984009  -10260.00390     57.134804
    7833           0     -1786.589355   1101.984009  -10620.00390     56.505226
    7834           0     -1786.589355   1101.984009  -10980.00390     56.117363
    7835           0     -1786.589355   1101.984009  -11340.00390     55.975166
    7836           0     -1786.589355   1101.984009  -11700.00390     56.020184
    7837           0     -1786.589355   1101.984009  -12060.00390     56.223503
    7838           0     -1786.589355   1101.984009  -12420.00390     56.482704
    7839           0     -1786.589355   1101.984009  -12780.00390     56.942287
    7840           0     -1786.589478   1101.984009  -13140.00390     57.387012
    7841           0     -1786.589478   1101.984009  -13500.00390     57.969067
    7842           0     -1786.589478   1101.984009  -13860.00390     59.208961
    7843           0     -1786.589355   1101.984009  -14220.00293     57.973511
    7844           0     -1847.641357    996.238708   -180.003326     43.690823
    7845           0     -1847.641357    996.238708   -540.003357     44.204403
    7846           0     -1847.641357    996.238708   -900.003418     43.254414
    7847           0     -1847.641357    996.238708  -1260.003418     43.244740
    7848           0     -1847.641357    996.238708  -1620.003418     42.872814
    7849           0     -1847.641357    996.238708  -1980.003540     42.887676
    7850           0     -1847.641357    996.238708  -2340.003906     43.195396
    7851           0     -1847.641357    996.238708  -2700.003906     44.092655
    7852           0     -1847.641357    996.238708  -3060.003418     45.580360
    7853           0     -1847.641357    996.238708  -3420.003418     47.599365
    7854           0     -1847.641357    996.238708  -3780.003418     49.994045
    7855           0     -1847.641357    996.238708  -4140.003906     52.589222
    7856           0     -1847.641357    996.238708  -4500.003906     55.211594
    7857           0     -1847.641357    996.238708  -4860.003906     57.716057
    7858           0     -1847.641357    996.238708  -5220.003906     59.991367
    7859           0     -1847.641357    996.238708  -5580.003906     61.959320
    7860           0     -1847.641357    996.238708  -5940.003906     63.569351
    7861           0     -1847.641357    996.238708  -6300.003906     64.792213
    7862           0     -1847.641357    996.238708  -6660.003906     65.615448
    7863           0     -1847.641357    996.238708  -7020.003906     66.038811
    7864           0     -1847.641357    996.238770  -7380.003906     66.072906
    7865           0     -1847.641357    996.238770  -7740.003906     65.736984
    7866           0     -1847.641357    996.238770  -8100.003906     65.060516
    7867           0     -1847.641357    996.238770  -8460.003906     64.083397
    7868           0     -1847.641357    996.238770  -8820.003906     62.859165
    7869           0     -1847.641357    996.238770  -9180.003906     61.456688
    7870           0     -1847.641357    996.238770  -9540.003906     59.963799
    7871           0     -1847.641357    996.238770  -9900.003906     58.487251
    7872           0     -1847.641357    996.238770  -10260.00390     57.147060
    7873           0     -1847.641357    996.238770  -10620.00390     56.066795
    7874           0     -1847.641357    996.238770  -10980.00390     55.346050
    7875           0     -1847.641357    996.238770  -11340.00390     55.042118
    7876           0     -1847.641357    996.238770  -11700.00390     55.115074
    7877           0     -1847.641357    996.238770  -12060.00390     55.501915
    7878           0     -1847.641357    996.238770  -12420.00390     56.009701
    7879           0     -1847.641357    996.238770  -12780.00390     56.759262
    7880           0     -1847.641357    996.238770  -13140.00390     57.507656
    7881           0     -1847.641357    996.238770  -13500.00390     58.456387
    7882           0     -1847.641357    996.238770  -13860.00390     60.138073
    7883           0     -1847.641357    996.238770  -14220.00293     59.133823
    7884           0     -1902.441650    887.122437   -180.003326     41.622349
    7885           0     -1902.441650    887.122437   -540.003357     42.215004
    7886           0     -1902.441650    887.122437   -900.003418     42.289337
    7887           0     -1902.441650    887.122437  -1260.003418     42.838013
    7888           0     -1902.441650    887.122437  -1620.003418     43.182362
    7889           0     -1902.441650    887.122437  -1980.003418     43.996284
    7890           0     -1902.441650    887.122437  -2340.003418     45.280689
    7891           0     -1902.441650    887.122437  -2700.003418     47.175533
    7892           0     -1902.441650    887.122437  -3060.003418     49.520039
    7893           0     -1902.441650    887.122437  -3420.003418     52.158676
    7894           0     -1902.441650    887.122437  -3780.003662     54.900768
    7895           0     -1902.441650    887.122437  -4140.003418     57.589420
    7896           0     -1902.441650    887.122375  -4500.003906     60.092865
    7897           0     -1902.441650    887.122375  -4860.003906     62.323448
    7898           0     -1902.441650    887.122375  -5220.003906     64.222839
    7899           0     -1902.441650    887.122375  -5580.003418     65.760620
    7900           0     -1902.441650    887.122375  -5940.003418     66.922470
    7901           0     -1902.441650    887.122375  -6300.003906     67.707642
    7902           0     -1902.441650    887.122375  -6660.003906     68.122269
    7903           0     -1902.441650    887.122375  -7020.003906     68.179024
    7904           0     -1902.441650    887.122375  -7380.003418     67.893730
    7905           0     -1902.441650    887.122375  -7740.003906     67.287270
    7906           0     -1902.441650    887.122375  -8100.003906     66.384117
    7907           0     -1902.441650    887.122375  -8460.003906     65.215805
    7908           0     -1902.441650    887.122375  -8820.003906     63.821751
    7909           0     -1902.441650    887.122375  -9180.003906     62.254917
    7910           0     -1902.441650    887.122375  -9540.002930     60.584824
    7911           0     -1902.441650    887.122375  -9900.003906     58.904121
    7912           0     -1902.441650    887.122375  -10260.00390     57.329475
    7913           0     -1902.441650    887.122375  -10620.00390     56.002636
    7914           0     -1902.441650    887.122375  -10980.00390     55.071365
    7915           0     -1902.441650    887.122375  -11340.00390     54.666214
    7916           0     -1902.441650    887.122375  -11700.00390     54.825886
    7917           0     -1902.441650    887.122375  -12060.00390     55.524998
    7918           0     -1902.441650    887.122375  -12420.00390     56.493004
    7919           0     -1902.441650    887.122375  -12780.00390     57.756424
    7920           0     -1902.441650    887.122375  -13140.00390     59.028309
    7921           0     -1902.441650    887.122375  -13500.00390     60.492550
    7922           0     -1902.441650    887.122375  -13860.00390     62.942841
    7923           0     -1902.441650    887.122375  -14220.00293     62.105698
    7924           0     -1950.804565    775.004395   -180.003326     40.655777
    7925           0     -1950.804565    775.004395   -540.003357     41.283436
    7926           0     -1950.804565    775.004395   -900.003418     41.922379
    7927           0     -1950.804565    775.004395  -1260.003418     42.818390
    7928           0     -1950.804565    775.004395  -1620.003418     43.851990
    7929           0     -1950.804565    775.004395  -1980.003540     45.552689
    7930           0     -1950.804565    775.004395  -2340.003662     47.794186
    7931           0     -1950.804565    775.004395  -2700.003662     50.425148
    7932           0     -1950.804565    775.004395  -3060.003418     53.177807
    7933           0     -1950.804565    775.004395  -3420.003906     55.901409
    7934           0     -1950.804565    775.004395  -3780.003906     58.455521
    7935           0     -1950.804565    775.004395  -4140.003906     60.758255
    7936           0     -1950.804565    775.004395  -4500.003906     62.752892
    7937           0     -1950.804565    775.004395  -4860.003906     64.416183
    7938           0     -1950.804565    775.004395  -5220.003906     65.739548
    7939           0     -1950.804565    775.004395  -5580.003906     66.726456
    7940           0     -1950.804565    775.004395  -5940.003418     67.386238
    7941           0     -1950.804565    775.004395  -6300.003906     67.731400
    7942           0     -1950.804565    775.004395  -6660.003906     67.777084
    7943           0     -1950.804565    775.004395  -7020.003906     67.539566
    7944           0     -1950.804565    775.004395  -7380.003906     67.037750
    7945           0     -1950.804565    775.004395  -7740.003906     66.292221
    7946           0     -1950.804565    775.004395  -8100.003418     65.327209
    7947           0     -1950.804565    775.004395  -8460.003906     64.170860
    7948           0     -1950.804565    775.004395  -8820.003906     62.856995
    7949           0     -1950.804565    775.004395  -9180.003906     61.428120
    7950           0     -1950.804565    775.004395  -9540.003906     59.937447
    7951           0     -1950.804565    775.004395  -9900.003906     58.455524
    7952           0     -1950.804565    775.004395  -10260.00390     57.073891
    7953           0     -1950.804565    775.004395  -10620.00390     55.912941
    7954           0     -1950.804565    775.004395  -10980.00390     55.118702
    7955           0     -1950.804565    775.004395  -11340.00390     54.855671
    7956           0     -1950.804565    775.004395  -11700.00390     55.240639
    7957           0     -1950.804565    775.004395  -12060.00390     56.364120
    7958           0     -1950.804565    775.004395  -12420.00390     57.987820
    7959           0     -1950.804565    775.004395  -12780.00390     60.027466
    7960           0     -1950.804565    775.004272  -13140.00390     62.098999
    7961           0     -1950.804565    775.004272  -13500.00390     64.245178
    7962           0     -1950.804565    775.004272  -13860.00390     67.814697
    7963           0     -1950.804565    775.004395  -14220.00293     67.101547
    7964           0     -1992.566650    660.264038   -180.003326     42.673542
    7965           0     -1992.566650    660.264038   -540.003357     43.301579
    7966           0     -1992.566650    660.264038   -900.003418     43.440914
    7967           0     -1992.566650    660.264038  -1260.003418     44.358925
    7968           0     -1992.566650    660.264038  -1620.003418     45.860367
    7969           0     -1992.566650    660.264038  -1980.003540     48.150921
    7970           0     -1992.566650    660.264038  -2340.003906     50.711308
    7971           0     -1992.566650    660.264038  -2700.003906     53.228748
    7972           0     -1992.566650    660.264038  -3060.003418     55.528175
    7973           0     -1992.566650    660.264038  -3420.003418     57.594791
    7974           0     -1992.566650    660.264038  -3780.003418     59.394947
    7975           0     -1992.566650    660.264038  -4140.003906     60.944344
    7976           0     -1992.566650    660.264038  -4500.003906     62.242580
    7977           0     -1992.566650    660.264038  -4860.003906     63.302486
    7978           0     -1992.566650    660.264038  -5220.003906     64.122986
    7979           0     -1992.566650    660.264038  -5580.003906     64.707352
    7980           0     -1992.566650    660.264038  -5940.003906     65.050735
    7981           0     -1992.566650    660.264038  -6300.003906     65.154724
    7982           0     -1992.566650    660.264038  -6660.003906     65.017998
    7983           0     -1992.566650    660.264038  -7020.003906     64.649887
    7984           0     -1992.566650    660.264038  -7380.003906     64.060211
    7985           0     -1992.566650    660.264038  -7740.003906     63.272655
    7986           0     -1992.566650    660.264038  -8100.003906     62.312992
    7987           0     -1992.566650    660.264038  -8460.003906     61.223423
    7988           0     -1992.566650    660.264038  -8820.003906     60.047672
    7989           0     -1992.566650    660.264038  -9180.003906     58.847286
    7990           0     -1992.566650    660.264038  -9540.003906     57.682938
    7991           0     -1992.566650    660.264038  -9900.003906     56.633152
    7992           0     -1992.566650    660.264038  -10260.00390     55.775204
    7993           0     -1992.566650    660.264038  -10620.00390     55.204651
    7994           0     -1992.566650    660.264038  -10980.00390     55.021717
    7995           0     -1992.566650    660.264038  -11340.00390     55.355026
    7996           0     -1992.566650    660.264038  -11700.00390     56.310040
    7997           0     -1992.566650    660.264038  -12060.00390     58.049274
    7998           0     -1992.566650    660.264038  -12420.00390     60.486652
    7999           0     -1992.566650    660.264038  -12780.00390     63.545097
    8000           0     -1992.566650    660.264038  -13140.00390     66.743095
    8001           0     -1992.566650    660.264038  -13500.00390     69.748360
    8002           0     -1992.566650    660.264038  -13860.00390     74.784431
    8003           0     -1992.566650    660.264038  -14220.00293     74.152077
    8004           0     -2027.586426    543.289490   -180.003326     48.835922
    8005           0     -2027.586426    543.289490   -540.003357     49.494423
    8006           0     -2027.586426    543.289490   -900.003418     47.979275
    8007           0     -2027.586426    543.289490  -1260.003418     48.598560
    8008           0     -2027.586426    543.289490  -1620.003418     49.903095
    8009           0     -2027.586426    543.289490  -1980.003418     51.680344
    8010           0     -2027.586426    543.289490  -2340.003418     53.136013
    8011           0     -2027.586426    543.289490  -2700.003418     54.221519
    8012           0     -2027.586426    543.289490  -3060.003418     55.091717
    8013           0     -2027.586426    543.289490  -3420.003418     55.908306
    8014           0     -2027.586426    543.289490  -3780.003662     56.754986
    8015           0     -2027.586426    543.289490  -4140.003418     57.671761
    8016           0     -2027.586426    543.289490  -4500.003906     58.648022
    8017           0     -2027.586426    543.289490  -4860.003906     59.632046
    8018           0     -2027.586426    543.289490  -5220.003906     60.566063
    8019           0     -2027.586426    543.289490  -5580.003418     61.374508
    8020           0     -2027.586426    543.289429  -5940.003418     61.999763
    8021           0     -2027.586426    543.289429  -6300.003906     62.383564
    8022           0     -2027.586426    543.289429  -6660.003906     62.492722
    8023           0     -2027.586426    543.289429  -7020.003906     62.302296
    8024           0     -2027.586426    543.289429  -7380.003418     61.812878
    8025           0     -2027.586426    543.289429  -7740.003906     61.039078
    8026           0     -2027.586426    543.289429  -8100.003906     60.020813
    8027           0     -2027.586426    543.289429  -8460.003906     58.817326
    8028           0     -2027.586426    543.289429  -8820.003906     57.512775
    8029           0     -2027.586426    543.289429  -9180.003906     56.213577
    8030           0     -2027.586426    543.289429  -9540.002930     55.045437
    8031           0     -2027.586426    543.289429  -9900.003906     54.146980
    8032           0     -2027.586426    543.289429  -10260.00390     53.656445
    8033           0     -2027.586426    543.289429  -10620.00390     53.693218
    8034           0     -2027.586426    543.289429  -10980.00390     54.346142
    8035           0     -2027.586426    543.289429  -11340.00390     55.667809
    8036           0     -2027.586426    543.289429  -11700.00390     57.667912
    8037           0     -2027.586426    543.289429  -12060.00390     60.399742
    8038           0     -2027.586426    543.289429  -12420.00390     63.842804
    8039           0     -2027.586426    543.289429  -12780.00390     68.076668
    8040           0     -2027.586426    543.289429  -13140.00390     72.729202
    8041           0     -2027.586426    543.289429  -13500.00390     76.795853
    8042           0     -2027.586426    543.289429  -13860.00390     83.591537
    8043           0     -2027.586426    543.289429  -14220.00293     83.004646
    8044           0     -2055.745605    424.476654   -180.003326     58.711739
    8045           0     -2055.745605    424.476654   -540.003357     59.582817
    8046           0     -2055.745605    424.476654   -900.003418     55.809040
    8047           0     -2055.745605    424.476654  -1260.003418     55.698162
    8048           0     -2055.745605    424.476654  -1620.003418     55.356480
    8049           0     -2055.745605    424.476654  -1980.003540     54.609711
    8050           0     -2055.745605    424.476654  -2340.003662     53.063911
    8051           0     -2055.745605    424.476654  -2700.003662     51.474255
    8052           0     -2055.745605    424.476654  -3060.003418     50.397976
    8053           0     -2055.745605    424.476654  -3420.003906     50.168903
    8054           0     -2055.745605    424.476654  -3780.003906     50.846893
    8055           0     -2055.745605    424.476654  -4140.003906     52.316540
    8056           0     -2055.745605    424.476654  -4500.003906     54.329742
    8057           0     -2055.745605    424.476654  -4860.003906     56.620743
    8058           0     -2055.745605    424.476654  -5220.003906     58.941551
    8059           0     -2055.745605    424.476654  -5580.003906     61.094704
    8060           0     -2055.745605    424.476654  -5940.003418     62.925930
    8061           0     -2055.745605    424.476624  -6300.003906     64.332939
    8062           0     -2055.745605    424.476624  -6660.003906     65.238472
    8063           0     -2055.745605    424.476624  -7020.003906     65.612305
    8064           0     -2055.745605    424.476624  -7380.003906     65.431793
    8065           0     -2055.745605    424.476624  -7740.003906     64.725128
    8066           0     -2055.745605    424.476624  -8100.003418     63.519268
    8067           0     -2055.745605    424.476624  -8460.003906     61.905308
    8068           0     -2055.745605    424.476624  -8820.003906     59.973972
    8069           0     -2055.745605    424.476624  -9180.003906     57.900295
    8070           0     -2055.745605    424.476624  -9540.003906     55.866611
    8071           0     -2055.745605    424.476624  -9900.003906     54.148579
    8072           0     -2055.745605    424.476624  -10260.00390     53.015987
    8073           0     -2055.745605    424.476624  -10620.00390     52.770161
    8074           0     -2055.745605    424.476624  -10980.00390     53.615631
    8075           0     -2055.745605    424.476624  -11340.00390     55.647724
    8076           0     -2055.745605    424.476624  -11700.00390     58.783772
    8077           0     -2055.745605    424.476624  -12060.00390     62.872231
    8078           0     -2055.745605    424.476624  -12420.00390     67.642998
    8079           0     -2055.745605    424.476624  -12780.00390     73.145210
    8080           0     -2055.745605    424.476624  -13140.00390     79.483200
    8081           0     -2055.745605    424.476593  -13500.00390     84.858109
    8082           0     -2055.745605    424.476593  -13860.00390     93.666664
    8083           0     -2055.745605    424.476624  -14220.00293     93.098175
    8084           0     -2076.948730    304.227539   -180.003326     70.919327
    8085           0     -2076.948730    304.227539   -540.003357     72.273552
    8086           0     -2076.948730    304.227539   -900.003418     66.030228
    8087           0     -2076.948730    304.227539  -1260.003418     64.051125
    8088           0     -2076.948730    304.227539  -1620.003418     59.690815
    8089           0     -2076.948730    304.227539  -1980.003540     53.900795
    8090           0     -2076.948730    304.227539  -2340.003906     47.867264
    8091           0     -2076.948730    304.227539  -2700.003906     43.290886
    8092           0     -2076.948730    304.227539  -3060.003418     41.318954
    8093           0     -2076.948730    304.227539  -3420.003418     42.192104
    8094           0     -2076.948730    304.227539  -3780.003418     45.393772
    8095           0     -2076.948730    304.227539  -4140.003906     49.959778
    8096           0     -2076.948730    304.227539  -4500.003906     55.098171
    8097           0     -2076.948730    304.227539  -4860.003906     60.217613
    8098           0     -2076.948730    304.227539  -5220.003906     64.987030
    8099           0     -2076.948730    304.227539  -5580.003906     69.168869
    8100           0     -2076.948730    304.227539  -5940.003906     72.657387
    8101           0     -2076.948730    304.227539  -6300.003906     75.354454
    8102           0     -2076.948730    304.227539  -6660.003906     77.245300
    8103           0     -2076.948730    304.227539  -7020.003906     78.286469
    8104           0     -2076.948730    304.227539  -7380.003906     78.510971
    8105           0     -2076.948730    304.227539  -7740.003906     77.905678
    8106           0     -2076.948730    304.227539  -8100.003906     76.544968
    8107           0     -2076.948730    304.227539  -8460.003906     74.452126
    8108           0     -2076.948730    304.227539  -8820.003906     71.761086
    8109           0     -2076.948730    304.227539  -9180.003906     68.566101
    8110           0     -2076.948730    304.227539  -9540.003906     65.112259
    8111           0     -2076.948730    304.227539  -9900.003906     61.637302
    8112           0     -2076.948730    304.227539  -10260.00390     58.584095
    8113           0     -2076.948730    304.227539  -10620.00390     56.395969
    8114           0     -2076.948730    304.227539  -10980.00390     55.671604
    8115           0     -2076.948730    304.227539  -11340.00390     56.795055
    8116           0     -2076.948730    304.227539  -11700.00390     59.955429
    8117           0     -2076.948730    304.227539  -12060.00390     64.933838
    8118           0     -2076.948730    304.227539  -12420.00390     71.176369
    8119           0     -2076.948730    304.227539  -12780.00390     78.072220
    8120           0     -2076.948730    304.227539  -13140.00390     86.114151
    8121           0     -2076.948730    304.227539  -13500.00390     93.021507
    8122           0     -2076.948730    304.227539  -13860.00390    104.147919
    8123           0     -2076.948730    304.227539  -14220.00293    103.624573
    8124           0     -2091.124023    182.948975   -180.003326     83.941841
    8125           0     -2091.124023    182.948975   -540.003357     85.934013
    8126           0     -2091.124023    182.948975   -900.003418     76.423805
    8127           0     -2091.124023    182.948959  -1260.003418     70.146706
    8128           0     -2091.124023    182.948944  -1620.003418     58.623024
    8129           0     -2091.124023    182.948944  -1980.003418     45.985138
    8130           0     -2091.124023    182.948944  -2340.003418     35.625996
    8131           0     -2091.124023    182.948944  -2700.003418     30.677208
    8132           0     -2091.124023    182.948944  -3060.003418     33.005795
    8133           0     -2091.124023    182.948944  -3420.003418     40.097057
    8134           0     -2091.124023    182.948944  -3780.003662     48.977230
    8135           0     -2091.124023    182.948944  -4140.003418     57.980907
    8136           0     -2091.124023    182.948944  -4500.003906     66.446587
    8137           0     -2091.124023    182.948944  -4860.003906     74.064407
    8138           0     -2091.124023    182.948944  -5220.003906     80.711060
    8139           0     -2091.124023    182.948944  -5580.003418     86.344254
    8140           0     -2091.124023    182.948944  -5940.003418     90.926247
    8141           0     -2091.124023    182.948944  -6300.003906     94.494064
    8142           0     -2091.124023    182.948944  -6660.003906     97.012100
    8143           0     -2091.124023    182.948929  -7020.003906     98.554214
    8144           0     -2091.124023    182.948929  -7380.003418     99.072647
    8145           0     -2091.124023    182.948929  -7740.003906     98.666512
    8146           0     -2091.124023    182.948929  -8100.003906     97.282860
    8147           0     -2091.124023    182.948929  -8460.003906     95.048073
    8148           0     -2091.124023    182.948929  -8820.003906     91.928070
    8149           0     -2091.124023    182.948929  -9180.003906     88.094826
    8150           0     -2091.124023    182.948929  -9540.002930     83.589241
    8151           0     -2091.124023    182.948929  -9900.003906     78.681915
    8152           0     -2091.124023    182.948914  -10260.00390     73.615234
    8153           0     -2091.124023    182.948914  -10620.00390     68.880905
    8154           0     -2091.124023    182.948898  -10980.00390     65.131393
    8155           0     -2091.124023    182.948898  -11340.00390     63.159126
    8156           0     -2091.124023    182.948898  -11700.00390     63.835079
    8157           0     -2091.124023    182.948898  -12060.00390     67.490303
    8158           0     -2091.124023    182.948898  -12420.00390     74.028526
    8159           0     -2091.124023    182.948898  -12780.00390     82.107483
    8160           0     -2091.124023    182.948898  -13140.00390     91.659775
    8161           0     -2091.124023    182.948898  -13500.00390     99.991844
    8162           0     -2091.124023    182.948898  -13860.00390    113.853714
    8163           0     -2091.124023    182.948929  -14220.00293    113.588219
    8164           0     -2098.223633     61.051418   -180.003326     96.377472
    8165           0     -2098.223633     61.051418   -540.003357     98.265198
    8166           0     -2098.223633     61.051418   -900.003418     83.184128
    8167           0     -2098.223633     61.051414  -1260.003418     68.588257
    8168           0     -2098.223633     61.051407  -1620.003418     47.652958
    8169           0     -2098.223633     61.051407  -1980.003540     29.295729
    8170           0     -2098.223633     61.051407  -2340.003662     20.622614
    8171           0     -2098.223633     61.051407  -2700.003662     27.332996
    8172           0     -2098.223633     61.051407  -3060.003418     40.368633
    8173           0     -2098.223633     61.051407  -3420.003906     53.642067
    8174           0     -2098.223633     61.051407  -3780.003906     65.913231
    8175           0     -2098.223633     61.051407  -4140.003906     76.881363
    8176           0     -2098.223633     61.051399  -4500.003906     86.555389
    8177           0     -2098.223633     61.051395  -4860.003906     94.900673
    8178           0     -2098.223633     61.051395  -5220.003906    102.071503
    8179           0     -2098.223633     61.051395  -5580.003906    108.003479
    8180           0     -2098.223633     61.051395  -5940.003418    112.891388
    8181           0     -2098.223633     61.051395  -6300.003906    116.627892
    8182           0     -2098.223633     61.051395  -6660.003906    119.417503
    8183           0     -2098.223633     61.051392  -7020.003906    121.122307
    8184           0     -2098.223633     61.051384  -7380.003906    121.944366
    8185           0     -2098.223633     61.051384  -7740.003906    121.726555
    8186           0     -2098.223633     61.051384  -8100.003418    120.668762
    8187           0     -2098.223633     61.051384  -8460.003906    118.603172
    8188           0     -2098.223633     61.051384  -8820.003906    115.742157
    8189           0     -2098.223633     61.051384  -9180.003906    111.917412
    8190           0     -2098.223633     61.051384  -9540.003906    107.392479
    8191           0     -2098.223633     61.051376  -9900.003906    102.025711
    8192           0     -2098.223633     61.051373  -10260.00390     96.220001
    8193           0     -2098.223633     61.051373  -10620.00390     89.950340
    8194           0     -2098.223633     61.051373  -10980.00390     83.954063
    8195           0     -2098.223633     61.051373  -11340.00390     78.569427
    8196           0     -2098.223633     61.051373  -11700.00390     75.148857
    8197           0     -2098.223633     61.051373  -12060.00390     74.521866
    8198           0     -2098.223633     61.051373  -12420.00390     78.014191
    8199           0     -2098.223633     61.051369  -12780.00390     85.279549
    8200           0     -2098.223633     61.051361  -13140.00390     95.534721
    8201           0     -2098.223633     61.051361  -13500.00390    104.556816
    8202           0     -2098.223633     61.051361  -13860.00390    121.103920
    8203           0     -2098.223633     61.051392  -14220.00293    121.829369
    8204           0     -2098.223633    -61.052704   -180.003326    106.306526
    8205           0     -2098.223633    -61.052704   -540.003357    105.520187
    8206           0     -2098.223633    -61.052704   -900.003418     80.084984
    8207           0     -2098.223633    -61.052704  -1260.003418     54.070862
    8208           0     -2098.223633    -61.052704  -1620.003418     28.140951
    8209           0     -2098.223633    -61.052704  -1980.003540     20.280075
    8210           0     -2098.223633    -61.052704  -2340.003906     33.134499
    8211           0     -2098.223633    -61.052704  -2700.003906     49.453804
    8212           0     -2098.223633    -61.052704  -3060.003418     64.594124
    8213           0     -2098.223633    -61.052704  -3420.003418     78.057213
    8214           0     -2098.223633    -61.052704  -3780.003418     89.725845
    8215           0     -2098.223633    -61.052704  -4140.003906     99.993835
    8216           0     -2098.223633    -61.052704  -4500.003906    108.703247
    8217           0     -2098.223633    -61.052704  -4860.003906    116.329224
    8218           0     -2098.223633    -61.052704  -5220.003906    122.627396
    8219           0     -2098.223633    -61.052704  -5580.003906    128.054459
    8220           0     -2098.223633    -61.052704  -5940.003906    132.336853
    8221           0     -2098.223633    -61.052704  -6300.003906    135.873276
    8222           0     -2098.223633    -61.052704  -6660.003906    138.401688
    8223           0     -2098.223633    -61.052704  -7020.003906    140.243958
    8224           0     -2098.223633    -61.052704  -7380.003906    141.171494
    8225           0     -2098.223633    -61.052704  -7740.003906    141.424683
    8226           0     -2098.223633    -61.052704  -8100.003906    140.816864
    8227           0     -2098.223633    -61.052704  -8460.003906    139.513687
    8228           0     -2098.223633    -61.052704  -8820.003906    137.371506
    8229           0     -2098.223633    -61.052704  -9180.003906    134.498856
    8230           0     -2098.223633    -61.052704  -9540.003906    130.797485
    8231           0     -2098.223633    -61.052704  -9900.003906    126.351570
    8232           0     -2098.223633    -61.052704  -10260.00390    121.129204
    8233           0     -2098.223633    -61.052704  -10620.00390    115.256271
    8234           0     -2098.223633    -61.052711  -10980.00390    108.852798
    8235           0     -2098.223633    -61.052711  -11340.00390    102.248901
    8236           0     -2098.223633    -61.052711  -11700.00390     95.990089
    8237           0     -2098.223633    -61.052711  -12060.00390     91.003548
    8238           0     -2098.223633    -61.052711  -12420.00390     88.763641
    8239           0     -2098.223633    -61.052711  -12780.00390     90.757263
    8240           0     -2098.223633    -61.052711  -13140.00390     98.824600
    8241           0     -2098.223633    -61.052711  -13500.00390    106.604004
    8242           0     -2098.223633    -61.052711  -13860.00390    124.007675
    8243           0     -2098.223633    -61.052708  -14220.00293    126.630814
    8244           0     -2091.123779   -182.950317   -180.003326    110.146515
    8245           0     -2091.123779   -182.950317   -540.003357    101.021904
    8246           0     -2091.123779   -182.950317   -900.003418     61.309361
    8247           0     -2091.123779   -182.950317  -1260.003418     36.479599
    8248           0     -2091.123779   -182.950317  -1620.003418     37.087925
    8249           0     -2091.123779   -182.950317  -1980.003418     51.766537
    8250           0     -2091.123779   -182.950317  -2340.003418     67.284264
    8251           0     -2091.123779   -182.950317  -2700.003418     81.053116
    8252           0     -2091.123779   -182.950317  -3060.003418     93.109230
    8253           0     -2091.123779   -182.950317  -3420.003418    103.169647
    8254           0     -2091.123779   -182.950317  -3780.003662    112.118004
    8255           0     -2091.123779   -182.950333  -4140.003418    119.400925
    8256           0     -2091.123779   -182.950348  -4500.003906    126.014137
    8257           0     -2091.123779   -182.950348  -4860.003906    131.282913
    8258           0     -2091.123779   -182.950348  -5220.003906    136.117142
    8259           0     -2091.123779   -182.950348  -5580.003418    139.884171
    8260           0     -2091.123779   -182.950348  -5940.003418    143.319031
    8261           0     -2091.123779   -182.950348  -6300.003906    145.910904
    8262           0     -2091.123779   -182.950348  -6660.003906    148.191391
    8263           0     -2091.123779   -182.950348  -7020.003906    149.795593
    8264           0     -2091.123779   -182.950348  -7380.003418    151.057861
    8265           0     -2091.123779   -182.950348  -7740.003906    151.751572
    8266           0     -2091.123779   -182.950348  -8100.003906    152.039139
    8267           0     -2091.123779   -182.950348  -8460.003906    151.805664
    8268           0     -2091.123779   -182.950348  -8820.003906    151.080811
    8269           0     -2091.123779   -182.950348  -9180.003906    149.820679
    8270           0     -2091.123779   -182.950348  -9540.002930    147.977463
    8271           0     -2091.123779   -182.950348  -9900.003906    145.523560
    8272           0     -2091.123779   -182.950363  -10260.00390    142.415146
    8273           0     -2091.123779   -182.950363  -10620.00390    138.573166
    8274           0     -2091.123779   -182.950363  -10980.00390    134.088318
    8275           0     -2091.123779   -182.950363  -11340.00390    128.764481
    8276           0     -2091.123779   -182.950363  -11700.00390    123.072350
    8277           0     -2091.123779   -182.950363  -12060.00390    116.713264
    8278           0     -2091.123779   -182.950363  -12420.00390    111.194702
    8279           0     -2091.123779   -182.950363  -12780.00390    106.255524
    8280           0     -2091.123779   -182.950363  -13140.00390    107.189629
    8281           0     -2091.123779   -182.950378  -13500.00390    109.984077
    8282           0     -2091.123779   -182.950378  -13860.00390    121.935440
    8283           0     -2091.123779   -182.950348  -14220.00293    125.514198
    8284           0     -2076.948242   -304.228821   -180.003326     99.951118
    8285           0     -2076.948242   -304.228821   -540.003357     78.824440
    8286           0     -2076.948242   -304.228821   -900.003418     57.180042
    8287           0     -2076.948242   -304.228821  -1260.003418     67.033447
    8288           0     -2076.948242   -304.228821  -1620.003418     81.576843
    8289           0     -2076.948242   -304.228821  -1980.003540     93.099129
    8290           0     -2076.948242   -304.228821  -2340.003662    102.246956
    8291           0     -2076.948242   -304.228821  -2700.003662    109.993347
    8292           0     -2076.948242   -304.228821  -3060.003418    115.563499
    8293           0     -2076.948242   -304.228821  -3420.003906    120.867714
    8294           0     -2076.948242   -304.228821  -3780.003906    124.466515
    8295           0     -2076.948242   -304.228821  -4140.003906    128.182602
    8296           0     -2076.948242   -304.228821  -4500.003906    130.698654
    8297           0     -2076.948242   -304.228821  -4860.003906    133.403152
    8298           0     -2076.948242   -304.228821  -5220.003906    135.351120
    8299           0     -2076.948242   -304.228821  -5580.003906    137.441971
    8300           0     -2076.948242   -304.228821  -5940.003418    139.123962
    8301           0     -2076.948242   -304.228821  -6300.003906    140.860321
    8302           0     -2076.948242   -304.228821  -6660.003906    142.440475
    8303           0     -2076.948242   -304.228821  -7020.003906    143.968628
    8304           0     -2076.948242   -304.228821  -7380.003906    145.511063
    8305           0     -2076.948242   -304.228821  -7740.003906    146.882584
    8306           0     -2076.948242   -304.228821  -8100.003418    148.369263
    8307           0     -2076.948242   -304.228821  -8460.003906    149.552078
    8308           0     -2076.948242   -304.228821  -8820.003906    150.886307
    8309           0     -2076.948242   -304.228821  -9180.003906    151.769180
    8310           0     -2076.948242   -304.228821  -9540.003906    152.767761
    8311           0     -2076.948242   -304.228851  -9900.003906    153.162247
    8312           0     -2076.948242   -304.228882  -10260.00390    153.538361
    8313           0     -2076.948242   -304.228882  -10620.00390    153.184982
    8314           0     -2076.948242   -304.228882  -10980.00390    152.522781
    8315           0     -2076.948242   -304.228882  -11340.00390    151.109192
    8316           0     -2076.948242   -304.228882  -11700.00390    148.831070
    8317           0     -2076.948242   -304.228882  -12060.00390    146.025467
    8318           0     -2076.948242   -304.228882  -12420.00390    141.405975
    8319           0     -2076.948242   -304.228882  -12780.00390    137.028610
    8320           0     -2076.948242   -304.228882  -13140.00390    129.775604
    8321           0     -2076.948242   -304.228882  -13500.00390    128.115219
    8322           0     -2076.948242   -304.228882  -13860.00390    121.661324
    8323           0     -2076.948242   -304.228821  -14220.00293    115.964226
    8324           0     -2055.882568   -423.897186   -180.003326     73.003166
    8325           0     -2055.882568   -423.897186   -540.003357     99.925758
    8326           0     -2055.882568   -423.897186   -900.003418    121.780823
    8327           0     -2055.882568   -423.897186  -1260.003418    125.533394
    8328           0     -2055.882568   -423.897186  -1620.003418    128.959778
    8329           0     -2055.882568   -423.897186  -1980.003540    128.457367
    8330           0     -2055.882568   -423.897186  -2340.003906    127.859894
    8331           0     -2055.882568   -423.897186  -2700.003906    125.642059
    8332           0     -2055.882568   -423.897186  -3060.003418    124.028694
    8333           0     -2055.882568   -423.897186  -3420.003418    121.603821
    8334           0     -2055.882568   -423.897186  -3780.003418    119.795799
    8335           0     -2055.882568   -423.897186  -4140.003906    117.827690
    8336           0     -2055.882568   -423.897217  -4500.003906    116.324448
    8337           0     -2055.882568   -423.897217  -4860.003906    115.145370
    8338           0     -2055.882568   -423.897217  -5220.003906    114.282555
    8339           0     -2055.882568   -423.897217  -5580.003906    114.053802
    8340           0     -2055.882568   -423.897217  -5940.003906    114.021744
    8341           0     -2055.882568   -423.897217  -6300.003906    114.792702
    8342           0     -2055.882568   -423.897217  -6660.003906    115.660782
    8343           0     -2055.882568   -423.897217  -7020.003906    117.408035
    8344           0     -2055.882568   -423.897217  -7380.003906    119.156387
    8345           0     -2055.882568   -423.897217  -7740.003906    121.814240
    8346           0     -2055.882568   -423.897217  -8100.003906    124.359543
    8347           0     -2055.882568   -423.897217  -8460.003906    127.838287
    8348           0     -2055.882568   -423.897217  -8820.003906    131.044266
    8349           0     -2055.882568   -423.897217  -9180.003906    135.233963
    8350           0     -2055.882568   -423.897247  -9540.003906    138.901749
    8351           0     -2055.882568   -423.897247  -9900.003906    143.665054
    8352           0     -2055.882568   -423.897247  -10260.00390    147.504074
    8353           0     -2055.882568   -423.897247  -10620.00390    152.669067
    8354           0     -2055.882568   -423.897247  -10980.00390    156.245102
    8355           0     -2055.882568   -423.897247  -11340.00390    161.612549
    8356           0     -2055.882568   -423.897247  -11700.00390    164.237030
    8357           0     -2055.882568   -423.897247  -12060.00390    169.606506
    8358           0     -2055.882568   -423.897247  -12420.00390    169.940323
    8359           0     -2055.882568   -423.897247  -12780.00390    175.173660
    8360           0     -2055.882568   -423.897247  -13140.00390    169.099442
    8361           0     -2055.882568   -423.897247  -13500.00390    174.976288
    8362           0     -2055.882568   -423.897247  -13860.00390    152.623703
    8363           0     -2055.882568   -423.897217  -14220.00293    108.747169
    8364           0     -2028.065186   -541.566406   -180.003326    182.319931
    8365           0     -2028.065186   -541.566406   -540.003357    234.093048
    8366           0     -2028.065186   -541.566406   -900.003418    197.136734
    8367           0     -2028.065186   -541.566406  -1260.003418    182.389557
    8368           0     -2028.065186   -541.566406  -1620.003418    161.379410
    8369           0     -2028.065186   -541.566406  -1980.003540    147.556290
    8370           0     -2028.065186   -541.566406  -2340.003662    131.775696
    8371           0     -2028.065186   -541.566406  -2700.003662    119.946701
    8372           0     -2028.065186   -541.566406  -3060.003418    107.928421
    8373           0     -2028.065186   -541.566406  -3420.003418     98.022980
    8374           0     -2028.065186   -541.566406  -3780.003662     89.167763
    8375           0     -2028.065186   -541.566406  -4140.003418     81.474861
    8376           0     -2028.065186   -541.566406  -4500.003906     75.635902
    8377           0     -2028.065186   -541.566406  -4860.003906     70.504929
    8378           0     -2028.065186   -541.566406  -5220.003906     67.609673
    8379           0     -2028.065186   -541.566406  -5580.003906     65.178474
    8380           0     -2028.065186   -541.566406  -5940.003418     64.924271
    8381           0     -2028.065186   -541.566406  -6300.003906     64.949707
    8382           0     -2028.065186   -541.566406  -6660.003906     66.781807
    8383           0     -2028.065186   -541.566406  -7020.003906     68.782341
    8384           0     -2028.065186   -541.566406  -7380.003418     72.168892
    8385           0     -2028.065186   -541.566406  -7740.003906     75.734886
    8386           0     -2028.065186   -541.566406  -8100.003906     80.387352
    8387           0     -2028.065186   -541.566406  -8460.003906     85.328392
    8388           0     -2028.065186   -541.566406  -8820.003906     91.199318
    8389           0     -2028.065186   -541.566406  -9180.003906     97.501060
    8390           0     -2028.065186   -541.566467  -9540.002930    104.668877
    8391           0     -2028.065186   -541.566467  -9900.003906    112.392204
    8392           0     -2028.065186   -541.566467  -10260.00390    120.942871
    8393           0     -2028.065186   -541.566467  -10620.00390    130.160995
    8394           0     -2028.065186   -541.566467  -10980.00390    140.110260
    8395           0     -2028.065186   -541.566467  -11340.00390    150.952393
    8396           0     -2028.065186   -541.566467  -11700.00390    162.214447
    8397           0     -2028.065186   -541.566467  -12060.00390    175.112534
    8398           0     -2028.065186   -541.566467  -12420.00390    187.445862
    8399           0     -2028.065186   -541.566467  -12780.00390    203.685410
    8400           0     -2028.065186   -541.566467  -13140.00390    216.406174
    8401           0     -2028.065186   -541.566467  -13500.00390    236.668594
    8402           0     -2028.065186   -541.566467  -13860.00390    256.902710
    8403           0     -2028.065186   -541.566406  -14220.00293    196.489761
    8404           0     -1992.907837   -659.121582   -180.003326    191.759628
    8405           0     -1992.907837   -659.121582   -540.003357    235.989273
    8406           0     -1992.907837   -659.121582   -900.003418    203.289780
    8407           0     -1992.907837   -659.121582  -1260.003418    192.093643
    8408           0     -1992.907837   -659.121582  -1620.003418    171.585571
    8409           0     -1992.907837   -659.121582  -1980.003540    160.705353
    8410           0     -1992.907837   -659.121582  -2340.003906    145.288696
    8411           0     -1992.907837   -659.121582  -2700.003906    135.904526
    8412           0     -1992.907837   -659.121582  -3060.003418    123.924118
    8413           0     -1992.907837   -659.121582  -3420.003906    115.882736
    8414           0     -1992.907837   -659.121582  -3780.003906    106.495872
    8415           0     -1992.907837   -659.121582  -4140.003906     99.910004
    8416           0     -1992.907837   -659.121582  -4500.003906     92.804024
    8417           0     -1992.907837   -659.121582  -4860.003906     87.880852
    8418           0     -1992.907837   -659.121582  -5220.003906     82.985992
    8419           0     -1992.907837   -659.121582  -5580.003906     79.899307
    8420           0     -1992.907837   -659.121582  -5940.003906     77.196999
    8421           0     -1992.907837   -659.121582  -6300.003906     76.007996
    8422           0     -1992.907837   -659.121582  -6660.003906     75.419693
    8423           0     -1992.907837   -659.121582  -7020.003906     76.047905
    8424           0     -1992.907837   -659.121582  -7380.003906     77.411591
    8425           0     -1992.907837   -659.121582  -7740.003906     79.677849
    8426           0     -1992.907837   -659.121582  -8100.003418     82.804642
    8427           0     -1992.907837   -659.121582  -8460.003906     86.512085
    8428           0     -1992.907837   -659.121582  -8820.003906     91.255943
    8429           0     -1992.907837   -659.121582  -9180.003906     96.240776
    8430           0     -1992.907837   -659.121582  -9540.003906    102.524040
    8431           0     -1992.907837   -659.121582  -9900.003906    108.656670
    8432           0     -1992.907837   -659.121582  -10260.00390    116.456467
    8433           0     -1992.907837   -659.121582  -10620.00390    123.634956
    8434           0     -1992.907837   -659.121582  -10980.00390    132.966919
    8435           0     -1992.907837   -659.121582  -11340.00390    141.181213
    8436           0     -1992.907837   -659.121582  -11700.00390    152.106705
    8437           0     -1992.907837   -659.121582  -12060.00390    161.702698
    8438           0     -1992.907837   -659.121582  -12420.00390    174.311249
    8439           0     -1992.907837   -659.121582  -12780.00390    186.661469
    8440           0     -1992.907837   -659.121582  -13140.00390    200.796417
    8441           0     -1992.907837   -659.121582  -13500.00390    218.379913
    8442           0     -1992.907837   -659.121582  -13860.00390    240.237640
    8443           0     -1992.907837   -659.121582  -14220.00293    204.944839
    8444           0     -1950.803955   -775.005493   -180.003326     98.953278
    8445           0     -1950.803955   -775.005493   -540.003357    112.697197
    8446           0     -1950.803955   -775.005493   -900.003418    121.872604
    8447           0     -1950.803955   -775.005493  -1260.003418    128.057343
    8448           0     -1950.803955   -775.005493  -1620.003418    130.425949
    8449           0     -1950.803955   -775.005493  -1980.003540    131.231934
    8450           0     -1950.803955   -775.005493  -2340.003906    130.346863
    8451           0     -1950.803955   -775.005493  -2700.003906    128.763092
    8452           0     -1950.803955   -775.005493  -3060.003418    126.895638
    8453           0     -1950.803955   -775.005493  -3420.003418    124.619362
    8454           0     -1950.803955   -775.005493  -3780.003418    122.456764
    8455           0     -1950.803955   -775.005493  -4140.003906    120.231468
    8456           0     -1950.803955   -775.005493  -4500.003906    118.204201
    8457           0     -1950.803955   -775.005493  -4860.003906    116.417847
    8458           0     -1950.803955   -775.005493  -5220.003906    114.837418
    8459           0     -1950.803955   -775.005493  -5580.003906    113.718796
    8460           0     -1950.803955   -775.005493  -5940.003906    112.795898
    8461           0     -1950.803955   -775.005493  -6300.003906    112.476059
    8462           0     -1950.803955   -775.005493  -6660.003906    112.331230
    8463           0     -1950.803955   -775.005493  -7020.003906    112.868553
    8464           0     -1950.803955   -775.005493  -7380.003906    113.544464
    8465           0     -1950.803955   -775.005493  -7740.003906    114.938873
    8466           0     -1950.803955   -775.005493  -8100.003906    116.412857
    8467           0     -1950.803955   -775.005493  -8460.003906    118.614204
    8468           0     -1950.803955   -775.005493  -8820.003906    120.808449
    8469           0     -1950.803955   -775.005493  -9180.003906    123.719208
    8470           0     -1950.803955   -775.005493  -9540.003906    126.508232
    8471           0     -1950.803955   -775.005493  -9900.003906    129.981476
    8472           0     -1950.803955   -775.005493  -10260.00390    133.198914
    8473           0     -1950.803955   -775.005493  -10620.00390    137.036636
    8474           0     -1950.803955   -775.005493  -10980.00390    140.485214
    8475           0     -1950.803955   -775.005493  -11340.00390    144.449020
    8476           0     -1950.803955   -775.005493  -11700.00390    147.898453
    8477           0     -1950.803955   -775.005493  -12060.00390    151.751343
    8478           0     -1950.803955   -775.005493  -12420.00390    154.791046
    8479           0     -1950.803955   -775.005493  -12780.00390    158.497086
    8480           0     -1950.803955   -775.005493  -13140.00390    159.499619
    8481           0     -1950.803955   -775.005493  -13500.00390    165.165451
    8482           0     -1950.803955   -775.005493  -13860.00390    168.018707
    8483           0     -1950.803955   -775.005493  -14220.00293    154.708420
    8484           0     -1902.441040   -887.123535   -180.003326    117.963852
    8485           0     -1902.441040   -887.123535   -540.003357    100.662468
    8486           0     -1902.441040   -887.123535   -900.003418     70.897682
    8487           0     -1902.441040   -887.123535  -1260.003418     70.370499
    8488           0     -1902.441040   -887.123535  -1620.003418     80.938316
    8489           0     -1902.441040   -887.123535  -1980.003418     89.352058
    8490           0     -1902.441040   -887.123535  -2340.003418     97.624001
    8491           0     -1902.441040   -887.123535  -2700.003418    103.735176
    8492           0     -1902.441040   -887.123535  -3060.003418    108.737221
    8493           0     -1902.441040   -887.123535  -3420.003418    112.756676
    8494           0     -1902.441040   -887.123535  -3780.003662    115.763008
    8495           0     -1902.441040   -887.123535  -4140.003418    118.337219
    8496           0     -1902.441040   -887.123535  -4500.003906    120.188271
    8497           0     -1902.441040   -887.123535  -4860.003906    121.820435
    8498           0     -1902.441040   -887.123535  -5220.003906    123.021912
    8499           0     -1902.441040   -887.123535  -5580.003418    124.073624
    8500           0     -1902.441040   -887.123596  -5940.003418    124.932846
    8501           0     -1902.441040   -887.123596  -6300.003906    125.651352
    8502           0     -1902.441040   -887.123596  -6660.003906    126.349327
    8503           0     -1902.441040   -887.123596  -7020.003906    126.889610
    8504           0     -1902.441040   -887.123596  -7380.003418    127.517487
    8505           0     -1902.441040   -887.123596  -7740.003906    127.959450
    8506           0     -1902.441040   -887.123596  -8100.003906    128.536880
    8507           0     -1902.441040   -887.123596  -8460.003906    128.898392
    8508           0     -1902.441040   -887.123596  -8820.003906    129.381332
    8509           0     -1902.441040   -887.123596  -9180.003906    129.631195
    8510           0     -1902.441040   -887.123596  -9540.002930    129.916092
    8511           0     -1902.441040   -887.123596  -9900.003906    129.994202
    8512           0     -1902.441040   -887.123596  -10260.00390    129.928101
    8513           0     -1902.441040   -887.123596  -10620.00390    129.786987
    8514           0     -1902.441040   -887.123596  -10980.00390    129.204987
    8515           0     -1902.441040   -887.123596  -11340.00390    128.900177
    8516           0     -1902.441040   -887.123596  -11700.00390    127.750160
    8517           0     -1902.441040   -887.123596  -12060.00390    127.660500
    8518           0     -1902.441040   -887.123596  -12420.00390    126.489426
    8519           0     -1902.441040   -887.123596  -12780.00390    128.140732
    8520           0     -1902.441040   -887.123596  -13140.00390    130.422928
    8521           0     -1902.440918   -887.123657  -13500.00390    142.048798
    8522           0     -1902.440918   -887.123657  -13860.00390    166.197891
    8523           0     -1902.440918   -887.123535  -14220.00293    172.023895
    8524           0     -1847.640625   -996.239746   -180.003326    120.634674
    8525           0     -1847.640625   -996.239746   -540.003357    115.092789
    8526           0     -1847.640625   -996.239746   -900.003418     78.831467
    8527           0     -1847.640625   -996.239746  -1260.003418     53.659946
    8528           0     -1847.640625   -996.239746  -1620.003418     43.467232
    8529           0     -1847.640625   -996.239746  -1980.003540     48.803097
    8530           0     -1847.640625   -996.239746  -2340.003662     58.772842
    8531           0     -1847.640625   -996.239746  -2700.003662     69.621338
    8532           0     -1847.640625   -996.239746  -3060.003418     79.275780
    8533           0     -1847.640625   -996.239746  -3420.003906     87.712311
    8534           0     -1847.640625   -996.239746  -3780.003906     94.977814
    8535           0     -1847.640625   -996.239746  -4140.003906    101.005394
    8536           0     -1847.640625   -996.239746  -4500.003906    106.222481
    8537           0     -1847.640625   -996.239746  -4860.003906    110.402061
    8538           0     -1847.640625   -996.239746  -5220.003906    114.007477
    8539           0     -1847.640625   -996.239746  -5580.003906    116.783257
    8540           0     -1847.640625   -996.239746  -5940.003418    119.110344
    8541           0     -1847.640625   -996.239868  -6300.003906    120.783264
    8542           0     -1847.640625   -996.239868  -6660.003906    122.062592
    8543           0     -1847.640625   -996.239868  -7020.003906    122.820518
    8544           0     -1847.640625   -996.239868  -7380.003906    123.198769
    8545           0     -1847.640625   -996.239868  -7740.003906    123.144318
    8546           0     -1847.640625   -996.239868  -8100.003418    122.703522
    8547           0     -1847.640625   -996.239868  -8460.003906    121.878609
    8548           0     -1847.640625   -996.239868  -8820.003906    120.659035
    8549           0     -1847.640625   -996.239868  -9180.003906    119.076462
    8550           0     -1847.640625   -996.239868  -9540.003906    117.116631
    8551           0     -1847.640625   -996.239868  -9900.003906    114.821030
    8552           0     -1847.640625   -996.239868  -10260.00390    112.246002
    8553           0     -1847.640625   -996.239868  -10620.00390    109.455635
    8554           0     -1847.640625   -996.239868  -10980.00390    106.695770
    8555           0     -1847.640625   -996.239868  -11340.00390    104.148903
    8556           0     -1847.640625   -996.239868  -11700.00390    102.504204
    8557           0     -1847.640625   -996.239868  -12060.00390    102.264702
    8558           0     -1847.640625   -996.239868  -12420.00390    105.249779
    8559           0     -1847.640625   -996.239868  -12780.00390    111.920700
    8560           0     -1847.640625   -996.239868  -13140.00390    127.407997
    8561           0     -1847.640625   -996.239868  -13500.00390    146.507904
    8562           0     -1847.640625   -996.239868  -13860.00390    177.090912
    8563           0     -1847.640625   -996.239868  -14220.00293    180.005615
    8564           0     -1786.588501  -1101.985107   -180.003326    111.057159
    8565           0     -1786.588501  -1101.985107   -540.003357    113.026245
    8566           0     -1786.588501  -1101.985107   -900.003418     90.673508
    8567           0     -1786.588501  -1101.985107  -1260.003418     68.587051
    8568           0     -1786.588501  -1101.985107  -1620.003418     44.272381
    8569           0     -1786.588501  -1101.985107  -1980.003540     28.697096
    8570           0     -1786.588501  -1101.985107  -2340.003906     26.420914
    8571           0     -1786.588501  -1101.985107  -2700.003906     34.832184
    8572           0     -1786.588501  -1101.985107  -3060.003418     46.222000
    8573           0     -1786.588501  -1101.985107  -3420.003418     57.010979
    8574           0     -1786.588501  -1101.985107  -3780.003418     66.732246
    8575           0     -1786.588501  -1101.985107  -4140.003906     75.180382
    8576           0     -1786.588501  -1101.985107  -4500.003906     82.386353
    8577           0     -1786.588501  -1101.985107  -4860.003906     88.520462
    8578           0     -1786.588501  -1101.985107  -5220.003906     93.542160
    8579           0     -1786.588501  -1101.985107  -5580.003906     97.687157
    8580           0     -1786.588501  -1101.985107  -5940.003906    100.861786
    8581           0     -1786.588501  -1101.985107  -6300.003906    103.290680
    8582           0     -1786.588501  -1101.985107  -6660.003906    104.866592
    8583           0     -1786.588501  -1101.985107  -7020.003906    105.776306
    8584           0     -1786.588501  -1101.985107  -7380.003906    105.923111
    8585           0     -1786.588501  -1101.985107  -7740.003906    105.452866
    8586           0     -1786.588501  -1101.985107  -8100.003906    104.290817
    8587           0     -1786.588501  -1101.985107  -8460.003906    102.558434
    8588           0     -1786.588501  -1101.985107  -8820.003906    100.209976
    8589           0     -1786.588501  -1101.985107  -9180.003906     97.384583
    8590           0     -1786.588501  -1101.985107  -9540.003906     94.082771
    8591           0     -1786.588501  -1101.985107  -9900.003906     90.549957
    8592           0     -1786.588501  -1101.985107  -10260.00390     86.891510
    8593           0     -1786.588501  -1101.985107  -10620.00390     83.637726
    8594           0     -1786.588501  -1101.985107  -10980.00390     81.147934
    8595           0     -1786.588501  -1101.985107  -11340.00390     80.480957
    8596           0     -1786.588501  -1101.985107  -11700.00390     82.388512
    8597           0     -1786.588501  -1101.985107  -12060.00390     88.177208
    8598           0     -1786.588501  -1101.985107  -12420.00390     98.700966
    8599           0     -1786.588501  -1101.985107  -12780.00390    113.742920
    8600           0     -1786.588501  -1101.985107  -13140.00390    135.263107
    8601           0     -1786.588501  -1101.985107  -13500.00390    153.053360
    8602           0     -1786.588501  -1101.985107  -13860.00390    179.634476
    8603           0     -1786.588501  -1101.985107  -14220.00293    177.628662
    8604           0     -1719.491211  -1204.001587   -180.003326     96.497849
    8605           0     -1719.491211  -1204.001587   -540.003357    100.714333
    8606           0     -1719.491211  -1204.001587   -900.003418     87.997749
    8607           0     -1719.491211  -1204.001587  -1260.003418     76.422340
    8608           0     -1719.491211  -1204.001587  -1620.003418     58.175404
    8609           0     -1719.491211  -1204.001587  -1980.003418     39.927620
    8610           0     -1719.491211  -1204.001587  -2340.003418     24.134567
    8611           0     -1719.491211  -1204.001587  -2700.003418     13.968706
    8612           0     -1719.491211  -1204.001587  -3060.003418     17.632254
    8613           0     -1719.491211  -1204.001587  -3420.003418     27.525919
    8614           0     -1719.491211  -1204.001587  -3780.003662     37.715034
    8615           0     -1719.491211  -1204.001587  -4140.003418     46.903786
    8616           0     -1719.491211  -1204.001587  -4500.003906     54.954056
    8617           0     -1719.491211  -1204.001587  -4860.003906     61.793247
    8618           0     -1719.491211  -1204.001587  -5220.003906     67.539276
    8619           0     -1719.491211  -1204.001587  -5580.003418     72.155907
    8620           0     -1719.491211  -1204.001587  -5940.003418     75.800423
    8621           0     -1719.491211  -1204.001587  -6300.003906     78.410179
    8622           0     -1719.491211  -1204.001587  -6660.003906     80.151611
    8623           0     -1719.491211  -1204.001587  -7020.003906     80.942802
    8624           0     -1719.491211  -1204.001587  -7380.003418     80.953339
    8625           0     -1719.491211  -1204.001587  -7740.003906     80.099098
    8626           0     -1719.491211  -1204.001587  -8100.003906     78.562843
    8627           0     -1719.491211  -1204.001587  -8460.003906     76.286766
    8628           0     -1719.491211  -1204.001587  -8820.003906     73.502701
    8629           0     -1719.491211  -1204.001587  -9180.003906     70.242386
    8630           0     -1719.491211  -1204.001587  -9540.002930     66.875450
    8631           0     -1719.491211  -1204.001587  -9900.003906     63.672695
    8632           0     -1719.491211  -1204.001587  -10260.00390     61.303875
    8633           0     -1719.491211  -1204.001587  -10620.00390     60.487843
    8634           0     -1719.491211  -1204.001587  -10980.00390     62.135612
    8635           0     -1719.491211  -1204.001587  -11340.00390     67.073044
    8636           0     -1719.491211  -1204.001587  -11700.00390     75.563728
    8637           0     -1719.491089  -1204.001587  -12060.00390     87.695900
    8638           0     -1719.491089  -1204.001587  -12420.00390    102.991875
    8639           0     -1719.491089  -1204.001587  -12780.00390    120.337837
    8640           0     -1719.491089  -1204.001587  -13140.00390    139.388214
    8641           0     -1719.491089  -1204.001587  -13500.00390    152.601715
    8642           0     -1719.491089  -1204.001587  -13860.00390    173.998901
    8643           0     -1719.491089  -1204.001587  -14220.00293    169.380539
    8644           0     -1646.575562  -1301.944092   -180.003326     80.230484
    8645           0     -1646.575562  -1301.944092   -540.003357     84.302193
    8646           0     -1646.575562  -1301.944092   -900.003418     76.704636
    8647           0     -1646.575562  -1301.944092  -1260.003418     72.296326
    8648           0     -1646.575562  -1301.944092  -1620.003418     62.899384
    8649           0     -1646.575562  -1301.944092  -1980.003540     51.115517
    8650           0     -1646.575562  -1301.944092  -2340.003662     38.865459
    8651           0     -1646.575562  -1301.944092  -2700.003662     27.296432
    8652           0     -1646.575562  -1301.944214  -3060.003418     18.244715
    8653           0     -1646.575562  -1301.944214  -3420.003906     14.545845
    8654           0     -1646.575562  -1301.944214  -3780.003906     17.870001
    8655           0     -1646.575562  -1301.944214  -4140.003906     24.172592
    8656           0     -1646.575562  -1301.944214  -4500.003906     30.762047
    8657           0     -1646.575562  -1301.944214  -4860.003906     36.768623
    8658           0     -1646.575562  -1301.944214  -5220.003906     41.929340
    8659           0     -1646.575562  -1301.944214  -5580.003906     46.173100
    8660           0     -1646.575562  -1301.944214  -5940.003418     49.457687
    8661           0     -1646.575562  -1301.944214  -6300.003906     51.827141
    8662           0     -1646.575562  -1301.944214  -6660.003906     53.262619
    8663           0     -1646.575562  -1301.944214  -7020.003906     53.853092
    8664           0     -1646.575562  -1301.944214  -7380.003906     53.590588
    8665           0     -1646.575562  -1301.944214  -7740.003906     52.609989
    8666           0     -1646.575562  -1301.944214  -8100.003418     50.950092
    8667           0     -1646.575562  -1301.944214  -8460.003906     48.836224
    8668           0     -1646.575562  -1301.944214  -8820.003906     46.454769
    8669           0     -1646.575562  -1301.944214  -9180.003906     44.243740
    8670           0     -1646.575562  -1301.944214  -9540.003906     42.726109
    8671           0     -1646.575562  -1301.944214  -9900.003906     42.659386
    8672           0     -1646.575562  -1301.944214  -10260.00390     44.785313
    8673           0     -1646.575562  -1301.944214  -10620.00390     49.585884
    8674           0     -1646.575562  -1301.944214  -10980.00390     57.149590
    8675           0     -1646.575562  -1301.944214  -11340.00390     67.223236
    8676           0     -1646.575562  -1301.944214  -11700.00390     79.399696
    8677           0     -1646.575562  -1301.944214  -12060.00390     93.185112
    8678           0     -1646.575562  -1301.944214  -12420.00390    108.073227
    8679           0     -1646.575562  -1301.944214  -12780.00390    122.543724
    8680           0     -1646.575562  -1301.944214  -13140.00390    136.844452
    8681           0     -1646.575562  -1301.944214  -13500.00390    146.132599
    8682           0     -1646.575562  -1301.944214  -13860.00390    163.540115
    8683           0     -1646.575562  -1301.944092  -14220.00293    157.966446
    8684           0     -1568.088623  -1395.481323   -180.003326     63.838207
    8685           0     -1568.088623  -1395.481323   -540.003357     67.043449
    8686           0     -1568.088623  -1395.481323   -900.003418     62.319359
    8687           0     -1568.088623  -1395.481323  -1260.003418     61.407124
    8688           0     -1568.088623  -1395.481323  -1620.003418     58.349617
    8689           0     -1568.088623  -1395.481323  -1980.003540     53.405380
    8690           0     -1568.088623  -1395.481323  -2340.003906     47.017651
    8691           0     -1568.088623  -1395.481323  -2700.003906     40.148872
    8692           0     -1568.088623  -1395.481323  -3060.003418     33.724480
    8693           0     -1568.088623  -1395.481323  -3420.003418     28.349295
    8694           0     -1568.088623  -1395.481323  -3780.003418     24.706266
    8695           0     -1568.088623  -1395.481323  -4140.003906     23.089899
    8696           0     -1568.088623  -1395.481323  -4500.003906     23.348175
    8697           0     -1568.088623  -1395.481323  -4860.003906     24.798359
    8698           0     -1568.088623  -1395.481323  -5220.003906     26.765280
    8699           0     -1568.088623  -1395.481323  -5580.003906     28.706688
    8700           0     -1568.088623  -1395.481323  -5940.003906     30.345613
    8701           0     -1568.088623  -1395.481323  -6300.003906     31.487944
    8702           0     -1568.088623  -1395.481323  -6660.003906     32.096203
    8703           0     -1568.088623  -1395.481323  -7020.003906     32.134624
    8704           0     -1568.088623  -1395.481323  -7380.003906     31.701883
    8705           0     -1568.088623  -1395.481323  -7740.003906     30.892328
    8706           0     -1568.088623  -1395.481323  -8100.003906     29.980110
    8707           0     -1568.088623  -1395.481323  -8460.003906     29.278538
    8708           0     -1568.088623  -1395.481323  -8820.003906     29.324045
    8709           0     -1568.088623  -1395.481323  -9180.003906     30.624239
    8710           0     -1568.088623  -1395.481323  -9540.003906     33.656601
    8711           0     -1568.088623  -1395.481323  -9900.003906     38.566494
    8712           0     -1568.088623  -1395.481323  -10260.00390     45.290199
    8713           0     -1568.088623  -1395.481323  -10620.00390     53.614559
    8714           0     -1568.088623  -1395.481323  -10980.00390     63.258553
    8715           0     -1568.088623  -1395.481323  -11340.00390     73.997917
    8716           0     -1568.088623  -1395.481323  -11700.00390     85.423752
    8717           0     -1568.088623  -1395.481323  -12060.00390     97.240822
    8718           0     -1568.088623  -1395.481323  -12420.00390    108.832947
    8719           0     -1568.088623  -1395.481323  -12780.00390    119.297447
    8720           0     -1568.088623  -1395.481323  -13140.00390    129.544357
    8721           0     -1568.088623  -1395.481323  -13500.00390    136.299133
    8722           0     -1568.088623  -1395.481323  -13860.00390    150.779846
    8723           0     -1568.088623  -1395.481323  -14220.00293    145.100403
    8724           0     -1484.295532  -1484.296631   -180.003326     48.338005
    8725           0     -1484.295532  -1484.296631   -540.003357     50.734283
    8726           0     -1484.295532  -1484.296631   -900.003418     48.018475
    8727           0     -1484.295532  -1484.296631  -1260.003418     48.518215
    8728           0     -1484.295532  -1484.296631  -1620.003418     48.886311
    8729           0     -1484.295532  -1484.296631  -1980.003418     48.733810
    8730           0     -1484.295532  -1484.296631  -2340.003418     47.490952
    8731           0     -1484.295532  -1484.296631  -2700.003418     45.368553
    8732           0     -1484.295532  -1484.296631  -3060.003418     42.854431
    8733           0     -1484.295532  -1484.296631  -3420.003418     40.269352
    8734           0     -1484.295532  -1484.296631  -3780.003662     37.887932
    8735           0     -1484.295532  -1484.296631  -4140.003418     35.877346
    8736           0     -1484.295532  -1484.296631  -4500.003906     34.295910
    8737           0     -1484.295532  -1484.296631  -4860.003906     33.127007
    8738           0     -1484.295532  -1484.296631  -5220.003906     32.287842
    8739           0     -1484.295532  -1484.296631  -5580.003418     31.678415
    8740           0     -1484.295532  -1484.296631  -5940.003418     31.194841
    8741           0     -1484.295532  -1484.296631  -6300.003906     30.773832
    8742           0     -1484.295532  -1484.296631  -6660.003906     30.383160
    8743           0     -1484.295532  -1484.296631  -7020.003906     30.066730
    8744           0     -1484.295532  -1484.296631  -7380.003418     29.911753
    8745           0     -1484.295532  -1484.296631  -7740.003906     30.096357
    8746           0     -1484.295532  -1484.296631  -8100.003906     30.824724
    8747           0     -1484.295532  -1484.296631  -8460.003906     32.344265
    8748           0     -1484.295532  -1484.296631  -8820.003906     34.843594
    8749           0     -1484.295532  -1484.296631  -9180.003906     38.449451
    8750           0     -1484.295532  -1484.296631  -9540.002930     43.179863
    8751           0     -1484.295532  -1484.296631  -9900.003906     48.978989
    8752           0     -1484.295532  -1484.296631  -10260.00390     55.733730
    8753           0     -1484.295532  -1484.296631  -10620.00390     63.296967
    8754           0     -1484.295532  -1484.296631  -10980.00390     71.475067
    8755           0     -1484.295532  -1484.296631  -11340.00390     80.071022
    8756           0     -1484.295532  -1484.296631  -11700.00390     88.767265
    8757           0     -1484.295532  -1484.296631  -12060.00390     97.322922
    8758           0     -1484.295532  -1484.296631  -12420.00390    105.323006
    8759           0     -1484.295532  -1484.296631  -12780.00390    112.537407
    8760           0     -1484.295532  -1484.296631  -13140.00390    120.016472
    8761           0     -1484.295532  -1484.296631  -13500.00390    125.180916
    8762           0     -1484.295532  -1484.296631  -13860.00390    137.440903
    8763           0     -1484.295532  -1484.296631  -14220.00293    131.844254
    8764           0     -1395.480103  -1568.089600   -180.003326     34.815964
    8765           0     -1395.480103  -1568.089600   -540.003357     36.570415
    8766           0     -1395.480103  -1568.089600   -900.003418     35.625717
    8767           0     -1395.480103  -1568.089600  -1260.003418     36.611973
    8768           0     -1395.480103  -1568.089600  -1620.003418     38.427959
    8769           0     -1395.480103  -1568.089600  -1980.003540     40.710300
    8770           0     -1395.480103  -1568.089600  -2340.003662     42.833775
    8771           0     -1395.480103  -1568.089600  -2700.003662     44.351311
    8772           0     -1395.480103  -1568.089600  -3060.003418     45.312477
    8773           0     -1395.480103  -1568.089600  -3420.003906     45.793186
    8774           0     -1395.480103  -1568.089600  -3780.003906     45.915714
    8775           0     -1395.480103  -1568.089600  -4140.003906     45.794926
    8776           0     -1395.480103  -1568.089600  -4500.003906     45.521744
    8777           0     -1395.480103  -1568.089600  -4860.003906     45.162739
    8778           0     -1395.480103  -1568.089600  -5220.003906     44.767376
    8779           0     -1395.480103  -1568.089600  -5580.003906     44.370636
    8780           0     -1395.480103  -1568.089600  -5940.003418     44.009354
    8781           0     -1395.480103  -1568.089600  -6300.003906     43.722054
    8782           0     -1395.480103  -1568.089600  -6660.003906     43.562778
    8783           0     -1395.480103  -1568.089600  -7020.003906     43.598438
    8784           0     -1395.480103  -1568.089600  -7380.003906     43.914410
    8785           0     -1395.480103  -1568.089600  -7740.003906     44.606777
    8786           0     -1395.480103  -1568.089600  -8100.003418     45.776752
    8787           0     -1395.480103  -1568.089600  -8460.003906     47.516129
    8788           0     -1395.480103  -1568.089600  -8820.003906     49.896252
    8789           0     -1395.480103  -1568.089600  -9180.003906     52.953869
    8790           0     -1395.480103  -1568.089600  -9540.003906     56.689133
    8791           0     -1395.480103  -1568.089600  -9900.003906     61.059090
    8792           0     -1395.480103  -1568.089600  -10260.00390     65.984901
    8793           0     -1395.480103  -1568.089600  -10620.00390     71.356140
    8794           0     -1395.480103  -1568.089600  -10980.00390     77.017921
    8795           0     -1395.480103  -1568.089600  -11340.00390     82.829521
    8796           0     -1395.480103  -1568.089600  -11700.00390     88.560265
    8797           0     -1395.480103  -1568.089600  -12060.00390     94.128578
    8798           0     -1395.480103  -1568.089600  -12420.00390     99.364365
    8799           0     -1395.480103  -1568.089600  -12780.00390    104.443611
    8800           0     -1395.480103  -1568.089600  -13140.00390    110.085228
    8801           0     -1395.480103  -1568.089600  -13500.00390    114.223206
    8802           0     -1395.480103  -1568.089600  -13860.00390    124.567871
    8803           0     -1395.480103  -1568.089600  -14220.00293    119.100220
    8804           0     -1301.942871  -1646.576660   -180.003326     24.709318
    8805           0     -1301.942871  -1646.576660   -540.003357     25.864832
    8806           0     -1301.942871  -1646.576660   -900.003418     26.305748
    8807           0     -1301.942871  -1646.576660  -1260.003418     27.430887
    8808           0     -1301.942871  -1646.576660  -1620.003418     29.483143
    8809           0     -1301.942871  -1646.576660  -1980.003540     32.400066
    8810           0     -1301.942871  -1646.576660  -2340.003906     35.946972
    8811           0     -1301.942871  -1646.576660  -2700.003906     39.522594
    8812           0     -1301.942871  -1646.576660  -3060.003418     42.845127
    8813           0     -1301.942871  -1646.576660  -3420.003418     45.752022
    8814           0     -1301.942871  -1646.576660  -3780.003418     48.189365
    8815           0     -1301.942871  -1646.576660  -4140.003906     50.176357
    8816           0     -1301.942871  -1646.576660  -4500.003906     51.754765
    8817           0     -1301.942871  -1646.576660  -4860.003906     52.991993
    8818           0     -1301.942871  -1646.576660  -5220.003906     53.950562
    8819           0     -1301.942871  -1646.576660  -5580.003906     54.699516
    8820           0     -1301.942871  -1646.576660  -5940.003906     55.301529
    8821           0     -1301.942871  -1646.576660  -6300.003906     55.822979
    8822           0     -1301.942871  -1646.576660  -6660.003906     56.326775
    8823           0     -1301.942871  -1646.576660  -7020.003906     56.879574
    8824           0     -1301.942871  -1646.576660  -7380.003906     57.544773
    8825           0     -1301.942871  -1646.576660  -7740.003906     58.386631
    8826           0     -1301.942871  -1646.576660  -8100.003906     59.461922
    8827           0     -1301.942871  -1646.576660  -8460.003906     60.821205
    8828           0     -1301.942871  -1646.576660  -8820.003906     62.500591
    8829           0     -1301.942871  -1646.576660  -9180.003906     64.520721
    8830           0     -1301.942871  -1646.576660  -9540.003906     66.882515
    8831           0     -1301.942871  -1646.576660  -9900.003906     69.564621
    8832           0     -1301.942871  -1646.576660  -10260.00390     72.525909
    8833           0     -1301.942871  -1646.576660  -10620.00390     75.707382
    8834           0     -1301.942871  -1646.576660  -10980.00390     79.029320
    8835           0     -1301.942871  -1646.576660  -11340.00390     82.438385
    8836           0     -1301.942871  -1646.576660  -11700.00390     85.829094
    8837           0     -1301.942871  -1646.576660  -12060.00390     89.277077
    8838           0     -1301.942871  -1646.576660  -12420.00390     92.754128
    8839           0     -1301.942871  -1646.576660  -12780.00390     96.510201
    8840           0     -1301.942871  -1646.576660  -13140.00390    100.909393
    8841           0     -1301.942871  -1646.576660  -13500.00390    104.254936
    8842           0     -1301.942871  -1646.576660  -13860.00390    112.919090
    8843           0     -1301.942871  -1646.576660  -14220.00293    107.549065
    8844           0     -1204.000244  -1719.492188   -180.003326     19.743479
    8845           0     -1204.000244  -1719.492188   -540.003357     20.198950
    8846           0     -1204.000244  -1719.492188   -900.003418     20.895510
    8847           0     -1204.000244  -1719.492188  -1260.003418     21.795780
    8848           0     -1204.000244  -1719.492188  -1620.003418     23.288961
    8849           0     -1204.000244  -1719.492188  -1980.003418     25.664122
    8850           0     -1204.000244  -1719.492188  -2340.003418     29.081305
    8851           0     -1204.000244  -1719.492188  -2700.003418     33.162567
    8852           0     -1204.000244  -1719.492188  -3060.003418     37.531719
    8853           0     -1204.000244  -1719.492188  -3420.003418     41.843185
    8854           0     -1204.000244  -1719.492188  -3780.003662     45.882153
    8855           0     -1204.000244  -1719.492188  -4140.003418     49.530903
    8856           0     -1204.000244  -1719.492188  -4500.003906     52.739609
    8857           0     -1204.000244  -1719.492188  -4860.003906     55.511276
    8858           0     -1204.000244  -1719.492188  -5220.003906     57.873360
    8859           0     -1204.000244  -1719.492188  -5580.003418     59.871197
    8860           0     -1204.000244  -1719.492188  -5940.003418     61.556477
    8861           0     -1204.000244  -1719.492188  -6300.003906     62.984715
    8862           0     -1204.000244  -1719.492188  -6660.003906     64.211243
    8863           0     -1204.000244  -1719.492188  -7020.003906     65.290077
    8864           0     -1204.000244  -1719.492188  -7380.003418     66.272224
    8865           0     -1204.000244  -1719.492188  -7740.003906     67.204887
    8866           0     -1204.000244  -1719.492188  -8100.003906     68.130432
    8867           0     -1204.000244  -1719.492188  -8460.003906     69.085457
    8868           0     -1204.000244  -1719.492188  -8820.003906     70.100365
    8869           0     -1204.000244  -1719.492188  -9180.003906     71.197899
    8870           0     -1204.000244  -1719.492188  -9540.002930     72.394646
    8871           0     -1204.000244  -1719.492188  -9900.003906     73.698669
    8872           0     -1204.000244  -1719.492188  -10260.00390     75.114265
    8873           0     -1204.000244  -1719.492188  -10620.00390     76.643318
    8874           0     -1204.000244  -1719.492188  -10980.00390     78.283707
    8875           0     -1204.000244  -1719.492188  -11340.00390     80.065704
    8876           0     -1204.000244  -1719.492188  -11700.00390     81.982178
    8877           0     -1204.000244  -1719.492188  -12060.00390     84.189957
    8878           0     -1204.000244  -1719.492188  -12420.00390     86.659416
    8879           0     -1204.000244  -1719.492188  -12780.00390     89.591042
    8880           0     -1204.000244  -1719.492188  -13140.00390     93.090637
    8881           0     -1204.000244  -1719.492188  -13500.00390     95.761536
    8882           0     -1204.000244  -1719.492188  -13860.00390    103.003197
    8883           0     -1204.000244  -1719.492188  -14220.00293     97.711647
    8884           0     -1101.983643  -1786.589478   -180.003326     19.842186
    8885           0     -1101.983643  -1786.589478   -540.003357     19.693947
    8886           0     -1101.983643  -1786.589478   -900.003418     19.235033
    8887           0     -1101.983643  -1786.589478  -1260.003418     19.418999
    8888           0     -1101.983643  -1786.589478  -1620.003418     19.842775
    8889           0     -1101.983643  -1786.589478  -1980.003540     21.093468
    8890           0     -1101.983643  -1786.589478  -2340.003662     23.437374
    8891           0     -1101.983643  -1786.589478  -2700.003662     26.880960
    8892           0     -1101.983643  -1786.589478  -3060.003418     31.143524
    8893           0     -1101.983643  -1786.589478  -3420.003906     35.821815
    8894           0     -1101.983643  -1786.589478  -3780.003906     40.582989
    8895           0     -1101.983643  -1786.589478  -4140.003906     45.186913
    8896           0     -1101.983643  -1786.589478  -4500.003906     49.479862
    8897           0     -1101.983643  -1786.589478  -4860.003906     53.379997
    8898           0     -1101.983643  -1786.589478  -5220.003906     56.851234
    8899           0     -1101.983643  -1786.589478  -5580.003906     59.891380
    8900           0     -1101.983643  -1786.589478  -5940.003418     62.516750
    8901           0     -1101.983643  -1786.589478  -6300.003906     64.756393
    8902           0     -1101.983643  -1786.589478  -6660.003906     66.644920
    8903           0     -1101.983643  -1786.589478  -7020.003906     68.220406
    8904           0     -1101.983643  -1786.589478  -7380.003906     69.521454
    8905           0     -1101.983643  -1786.589478  -7740.003906     70.586884
    8906           0     -1101.983643  -1786.589478  -8100.003418     71.454765
    8907           0     -1101.983643  -1786.589478  -8460.003906     72.162758
    8908           0     -1101.983643  -1786.589478  -8820.003906     72.748367
    8909           0     -1101.983643  -1786.589478  -9180.003906     73.249176
    8910           0     -1101.983643  -1786.589478  -9540.003906     73.704849
    8911           0     -1101.983643  -1786.589478  -9900.003906     74.156357
    8912           0     -1101.983643  -1786.589478  -10260.00390     74.649239
    8913           0     -1101.983643  -1786.589478  -10620.00390     75.234161
    8914           0     -1101.983643  -1786.589478  -10980.00390     75.961090
    8915           0     -1101.983643  -1786.589478  -11340.00390     76.907249
    8916           0     -1101.983643  -1786.589478  -11700.00390     78.109146
    8917           0     -1101.983643  -1786.589478  -12060.00390     79.717644
    8918           0     -1101.983643  -1786.589478  -12420.00390     81.653381
    8919           0     -1101.983643  -1786.589478  -12780.00390     84.049667
    8920           0     -1101.983643  -1786.589478  -13140.00390     86.885925
    8921           0     -1101.983643  -1786.589478  -13500.00390     88.993271
    8922           0     -1101.983643  -1786.589478  -13860.00390     95.129677
    8923           0     -1101.983643  -1786.589478  -14220.00293     89.893509
    8924           0      -996.238403  -1847.641357   -180.003326     22.039974
    8925           0      -996.238403  -1847.641357   -540.003357     21.580967
    8926           0      -996.238403  -1847.641357   -900.003418     19.638187
    8927           0      -996.238403  -1847.641357  -1260.003418     18.905468
    8928           0      -996.238403  -1847.641357  -1620.003418     18.158438
    8929           0      -996.238403  -1847.641357  -1980.003540     18.215742
    8930           0      -996.238403  -1847.641357  -2340.003906     19.207682
    8931           0      -996.238403  -1847.641357  -2700.003906     21.445267
    8932           0      -996.238403  -1847.641357  -3060.003418     24.853643
    8933           0      -996.238403  -1847.641357  -3420.003418     29.096819
    8934           0      -996.238403  -1847.641357  -3780.003418     33.798901
    8935           0      -996.238403  -1847.641357  -4140.003906     38.638229
    8936           0      -996.238403  -1847.641357  -4500.003906     43.382256
    8937           0      -996.238403  -1847.641357  -4860.003906     47.873154
    8938           0      -996.238403  -1847.641357  -5220.003906     52.012222
    8939           0      -996.238403  -1847.641357  -5580.003906     55.743580
    8940           0      -996.238403  -1847.641357  -5940.003906     59.041473
    8941           0      -996.238403  -1847.641357  -6300.003906     61.900471
    8942           0      -996.238403  -1847.641357  -6660.003906     64.329559
    8943           0      -996.238403  -1847.641357  -7020.003906     66.347427
    8944           0      -996.238403  -1847.641357  -7380.003906     67.980774
    8945           0      -996.238403  -1847.641357  -7740.003906     69.262344
    8946           0      -996.238403  -1847.641357  -8100.003906     70.230850
    8947           0      -996.238403  -1847.641357  -8460.003906     70.930130
    8948           0      -996.238403  -1847.641357  -8820.003906     71.409630
    8949           0      -996.238403  -1847.641357  -9180.003906     71.723587
    8950           0      -996.238403  -1847.641357  -9540.003906     71.932304
    8951           0      -996.238403  -1847.641357  -9900.003906     72.100021
    8952           0      -996.238403  -1847.641357  -10260.00390     72.296211
    8953           0      -996.238403  -1847.641357  -10620.00390     72.593262
    8954           0      -996.238403  -1847.641357  -10980.00390     73.059570
    8955           0      -996.238403  -1847.641357  -11340.00390     73.779778
    8956           0      -996.238403  -1847.641357  -11700.00390     74.790710
    8957           0      -996.238403  -1847.641357  -12060.00390     76.197472
    8958           0      -996.238403  -1847.641357  -12420.00390     77.889259
    8959           0      -996.238403  -1847.641357  -12780.00390     79.945564
    8960           0      -996.238403  -1847.641357  -13140.00390     82.336510
    8961           0      -996.238403  -1847.641357  -13500.00390     84.018303
    8962           0      -996.238403  -1847.641357  -13860.00390     89.400375
    8963           0      -996.238403  -1847.641357  -14220.00293     84.190971
    8964           0      -887.122070  -1902.441650   -180.003326     23.901810
    8965           0      -887.122070  -1902.441650   -540.003357     23.299450
    8966           0      -887.122070  -1902.441650   -900.003418     20.299780
    8967           0      -887.122070  -1902.441650  -1260.003418     18.796904
    8968           0      -887.122070  -1902.441650  -1620.003418     17.095657
    8969           0      -887.122070  -1902.441650  -1980.003418     16.160372
    8970           0      -887.122070  -1902.441650  -2340.003418     15.971465
    8971           0      -887.122070  -1902.441650  -2700.003418     16.956202
    8972           0      -887.122070  -1902.441650  -3060.003418     19.234636
    8973           0      -887.122009  -1902.441650  -3420.003418     22.613724
    8974           0      -887.122009  -1902.441650  -3780.003662     26.742632
    8975           0      -887.122009  -1902.441650  -4140.003418     31.269115
    8976           0      -887.122009  -1902.441650  -4500.003906     35.919910
    8977           0      -887.122009  -1902.441650  -4860.003906     40.492989
    8978           0      -887.122009  -1902.441650  -5220.003906     44.847038
    8979           0      -887.122009  -1902.441650  -5580.003418     48.885696
    8980           0      -887.122009  -1902.441650  -5940.003418     52.547241
    8981           0      -887.122009  -1902.441650  -6300.003906     55.795425
    8982           0      -887.122009  -1902.441650  -6660.003906     58.614517
    8983           0      -887.122009  -1902.441650  -7020.003906     61.005005
    8984           0      -887.122009  -1902.441650  -7380.003418     62.981621
    8985           0      -887.122009  -1902.441650  -7740.003906     64.571404
    8986           0      -887.122009  -1902.441650  -8100.003906     65.812477
    8987           0      -887.122009  -1902.441650  -8460.003906     66.752693
    8988           0      -887.122009  -1902.441650  -8820.003906     67.448143
    8989           0      -887.122009  -1902.441650  -9180.003906     67.961456
    8990           0      -887.122009  -1902.441650  -9540.002930     68.360245
    8991           0      -887.122009  -1902.441650  -9900.003906     68.714455
    8992           0      -887.122009  -1902.441650  -10260.00390     69.095192
    8993           0      -887.122009  -1902.441650  -10620.00390     69.572968
    8994           0      -887.121948  -1902.441650  -10980.00390     70.211899
    8995           0      -887.121948  -1902.441650  -11340.00390     71.082726
    8996           0      -887.121948  -1902.441650  -11700.00390     72.207420
    8997           0      -887.121948  -1902.441650  -12060.00390     73.644554
    8998           0      -887.121948  -1902.441650  -12420.00390     75.286087
    8999           0      -887.121948  -1902.441650  -12780.00390     77.169281
    9000           0      -887.121948  -1902.441650  -13140.00390     79.333038
    9001           0      -887.121948  -1902.441650  -13500.00390     80.745651
    9002           0      -887.121948  -1902.441650  -13860.00390     85.711449
    9003           0      -887.121948  -1902.441650  -14220.00293     80.506554
    9004           0      -775.004028  -1950.804565   -180.003326     24.564104
    9005           0      -775.004028  -1950.804565   -540.003357     23.878635
    9006           0      -775.004028  -1950.804565   -900.003418     20.324747
    9007           0      -775.004028  -1950.804565  -1260.003418     18.308578
    9008           0      -775.004028  -1950.804565  -1620.003418     15.981527
    9009           0      -775.004028  -1950.804565  -1980.003540     14.316713
    9010           0      -775.004028  -1950.804565  -2340.003662     13.255527
    9011           0      -775.004028  -1950.804565  -2700.003662     13.224440
    9012           0      -775.004028  -1950.804565  -3060.003418     14.470848
    9013           0      -775.004028  -1950.804565  -3420.003906     16.934332
    9014           0      -775.003967  -1950.804565  -3780.003906     20.313089
    9015           0      -775.003967  -1950.804565  -4140.003906     24.253172
    9016           0      -775.003967  -1950.804565  -4500.003906     28.474596
    9017           0      -775.003967  -1950.804565  -4860.003906     32.766602
    9018           0      -775.003967  -1950.804565  -5220.003906     36.976490
    9019           0      -775.003967  -1950.804565  -5580.003906     40.991848
    9020           0      -775.003967  -1950.804565  -5940.003418     44.733173
    9021           0      -775.003967  -1950.804565  -6300.003906     48.146160
    9022           0      -775.003967  -1950.804565  -6660.003906     51.198971
    9023           0      -775.003967  -1950.804565  -7020.003906     53.878571
    9024           0      -775.003967  -1950.804565  -7380.003906     56.189129
    9025           0      -775.003967  -1950.804565  -7740.003906     58.149651
    9026           0      -775.003967  -1950.804565  -8100.003418     59.792030
    9027           0      -775.003967  -1950.804565  -8460.003906     61.158939
    9028           0      -775.003967  -1950.804565  -8820.003906     62.301029
    9029           0      -775.003967  -1950.804565  -9180.003906     63.274792
    9030           0      -775.003967  -1950.804565  -9540.003906     64.139641
    9031           0      -775.003967  -1950.804565  -9900.003906     64.956215
    9032           0      -775.003967  -1950.804565  -10260.00390     65.784889
    9033           0      -775.003967  -1950.804565  -10620.00390     66.685509
    9034           0      -775.003967  -1950.804565  -10980.00390     67.712616
    9035           0      -775.003967  -1950.804565  -11340.00390     68.918083
    9036           0      -775.003967  -1950.804565  -11700.00390     70.311996
    9037           0      -775.003967  -1950.804565  -12060.00390     71.915543
    9038           0      -775.003967  -1950.804565  -12420.00390     73.651573
    9039           0      -775.003967  -1950.804565  -12780.00390     75.511635
    9040           0      -775.003967  -1950.804565  -13140.00390     77.651291
    9041           0      -775.003967  -1950.804565  -13500.00390     78.942574
    9042           0      -775.003967  -1950.804565  -13860.00390     83.791969
    9043           0      -775.003967  -1950.804565  -14220.00293     78.572922
    9044           0      -660.263672  -1992.566650   -180.003326     23.990509
    9045           0      -660.263672  -1992.566650   -540.003357     23.241537
    9046           0      -660.263672  -1992.566650   -900.003418     19.530102
    9047           0      -660.263672  -1992.566650  -1260.003418     17.243502
    9048           0      -660.263672  -1992.566650  -1620.003418     14.617425
    9049           0      -660.263672  -1992.566650  -1980.003540     12.501775
    9050           0      -660.263672  -1992.566650  -2340.003906     10.886264
    9051           0      -660.263672  -1992.566650  -2700.003906     10.173446
    9052           0      -660.263672  -1992.566650  -3060.003418     10.707440
    9053           0      -660.263672  -1992.566650  -3420.003418     12.504122
    9054           0      -660.263672  -1992.566650  -3780.003418     15.268179
    9055           0      -660.263672  -1992.566650  -4140.003906     18.637421
    9056           0      -660.263672  -1992.566650  -4500.003906     22.341814
    9057           0      -660.263672  -1992.566650  -4860.003906     26.190998
    9058           0      -660.263672  -1992.566650  -5220.003906     30.049986
    9059           0      -660.263672  -1992.566650  -5580.003906     33.818127
    9060           0      -660.263672  -1992.566650  -5940.003906     37.421219
    9061           0      -660.263672  -1992.566650  -6300.003906     40.805477
    9062           0      -660.263672  -1992.566650  -6660.003906     43.935940
    9063           0      -660.263672  -1992.566650  -7020.003906     46.793594
    9064           0      -660.263672  -1992.566650  -7380.003906     49.374123
    9065           0      -660.263672  -1992.566650  -7740.003906     51.685497
    9066           0      -660.263672  -1992.566650  -8100.003906     53.746315
    9067           0      -660.263672  -1992.566650  -8460.003906     55.583755
    9068           0      -660.263672  -1992.566650  -8820.003906     57.232040
    9069           0      -660.263672  -1992.566650  -9180.003906     58.730801
    9070           0      -660.263672  -1992.566650  -9540.003906     60.124554
    9071           0      -660.263672  -1992.566650  -9900.003906     61.461040
    9072           0      -660.263672  -1992.566650  -10260.00390     62.792259
    9073           0      -660.263672  -1992.566650  -10620.00390     64.169228
    9074           0      -660.263672  -1992.566650  -10980.00390     65.640045
    9075           0      -660.263672  -1992.566650  -11340.00390     67.235855
    9076           0      -660.263672  -1992.566650  -11700.00390     68.961792
    9077           0      -660.263672  -1992.566650  -12060.00390     70.806610
    9078           0      -660.263672  -1992.566650  -12420.00390     72.742142
    9079           0      -660.263672  -1992.566650  -12780.00390     74.699547
    9080           0      -660.263672  -1992.566650  -13140.00390     76.979797
    9081           0      -660.263672  -1992.566650  -13500.00390     78.270180
    9082           0      -660.263672  -1992.566650  -13860.00390     83.242485
    9083           0      -660.263672  -1992.566650  -14220.00293     77.998314
    9084           0      -543.289124  -2027.586426   -180.003326     22.495806
    9085           0      -543.289124  -2027.586426   -540.003357     21.691893
    9086           0      -543.289124  -2027.586426   -900.003418     18.095943
    9087           0      -543.289124  -2027.586426  -1260.003418     15.732100
    9088           0      -543.289124  -2027.586426  -1620.003418     13.085595
    9089           0      -543.289124  -2027.586426  -1980.003418     10.815427
    9090           0      -543.289124  -2027.586426  -2340.003418      9.008708
    9091           0      -543.289124  -2027.586426  -2700.003418      8.054077
    9092           0      -543.289124  -2027.586426  -3060.003418      8.364754
    9093           0      -543.289124  -2027.586426  -3420.003418      9.934022
    9094           0      -543.289124  -2027.586426  -3780.003662     12.400566
    9095           0      -543.289124  -2027.586426  -4140.003418     15.397035
    9096           0      -543.289124  -2027.586426  -4500.003906     18.681574
    9097           0      -543.289124  -2027.586426  -4860.003906     22.102215
    9098           0      -543.289124  -2027.586426  -5220.003906     25.557177
    9099           0      -543.289124  -2027.586426  -5580.003418     28.974438
    9100           0      -543.289124  -2027.586426  -5940.003418     32.301556
    9101           0      -543.289124  -2027.586426  -6300.003906     35.500282
    9102           0      -543.289124  -2027.586426  -6660.003906     38.544033
    9103           0      -543.289124  -2027.586426  -7020.003906     41.415783
    9104           0      -543.289124  -2027.586426  -7380.003418     44.106636
    9105           0      -543.289124  -2027.586426  -7740.003906     46.614811
    9106           0      -543.289124  -2027.586426  -8100.003906     48.944782
    9107           0      -543.289124  -2027.586426  -8460.003906     51.107418
    9108           0      -543.289124  -2027.586426  -8820.003906     53.120213
    9109           0      -543.289124  -2027.586426  -9180.003906     55.008347
    9110           0      -543.289063  -2027.586426  -9540.002930     56.805611
    9111           0      -543.289063  -2027.586426  -9900.003906     58.553394
    9112           0      -543.289063  -2027.586426  -10260.00390     60.300053
    9113           0      -543.289063  -2027.586426  -10620.00390     62.090042
    9114           0      -543.289063  -2027.586426  -10980.00390     63.962276
    9115           0      -543.289063  -2027.586426  -11340.00390     65.925949
    9116           0      -543.289063  -2027.586426  -11700.00390     67.983101
    9117           0      -543.289063  -2027.586426  -12060.00390     70.096626
    9118           0      -543.289063  -2027.586426  -12420.00390     72.289604
    9119           0      -543.289063  -2027.586426  -12780.00390     74.425301
    9120           0      -543.289063  -2027.586426  -13140.00390     76.950989
    9121           0      -543.289063  -2027.586426  -13500.00390     78.330109
    9122           0      -543.289063  -2027.586426  -13860.00390     83.577293
    9123           0      -543.289124  -2027.586426  -14220.00293     78.315887
    9124           0      -424.476318  -2055.745605   -180.003326     20.524212
    9125           0      -424.476318  -2055.745605   -540.003357     19.684618
    9126           0      -424.476318  -2055.745605   -900.003418     16.354996
    9127           0      -424.476318  -2055.745605  -1260.003418     14.052270
    9128           0      -424.476318  -2055.745605  -1620.003418     11.590105
    9129           0      -424.476318  -2055.745605  -1980.003540      9.456609
    9130           0      -424.476318  -2055.745605  -2340.003662      7.880718
    9131           0      -424.476318  -2055.745605  -2700.003662      7.251640
    9132           0      -424.476318  -2055.745605  -3060.003418      7.891935
    9133           0      -424.476318  -2055.745605  -3420.003906      9.620147
    9134           0      -424.476318  -2055.745605  -3780.003906     12.039958
    9135           0      -424.476318  -2055.745605  -4140.003906     14.855145
    9136           0      -424.476318  -2055.745605  -4500.003906     17.877266
    9137           0      -424.476318  -2055.745605  -4860.003906     20.991364
    9138           0      -424.476318  -2055.745605  -5220.003906     24.119595
    9139           0      -424.476318  -2055.745605  -5580.003906     27.210764
    9140           0      -424.476318  -2055.745605  -5940.003418     30.230083
    9141           0      -424.476318  -2055.745605  -6300.003906     33.154331
    9142           0      -424.476318  -2055.745605  -6660.003906     35.968208
    9143           0      -424.476318  -2055.745605  -7020.003906     38.662029
    9144           0      -424.476318  -2055.745605  -7380.003906     41.230602
    9145           0      -424.476318  -2055.745605  -7740.003906     43.672779
    9146           0      -424.476318  -2055.745605  -8100.003418     45.991714
    9147           0      -424.476318  -2055.745605  -8460.003906     48.195896
    9148           0      -424.476318  -2055.745605  -8820.003906     50.300583
    9149           0      -424.476318  -2055.745605  -9180.003906     52.329163
    9150           0      -424.476288  -2055.745605  -9540.003906     54.314255
    9151           0      -424.476288  -2055.745605  -9900.003906     56.294754
    9152           0      -424.476288  -2055.745605  -10260.00390     58.313656
    9153           0      -424.476288  -2055.745605  -10620.00390     60.402374
    9154           0      -424.476288  -2055.745605  -10980.00390     62.584446
    9155           0      -424.476288  -2055.745605  -11340.00390     64.846138
    9156           0      -424.476288  -2055.745605  -11700.00390     67.189835
    9157           0      -424.476288  -2055.745605  -12060.00390     69.557350
    9158           0      -424.476288  -2055.745605  -12420.00390     72.019096
    9159           0      -424.476288  -2055.745605  -12780.00390     74.365768
    9160           0      -424.476288  -2055.745605  -13140.00390     77.181190
    9161           0      -424.476288  -2055.745605  -13500.00390     78.695190
    9162           0      -424.476288  -2055.745605  -13860.00390     84.288315
    9163           0      -424.476318  -2055.745605  -14220.00293     79.022202
    9164           0      -304.227173  -2076.948730   -180.003326     18.545948
    9165           0      -304.227173  -2076.948730   -540.003357     17.693460
    9166           0      -304.227173  -2076.948730   -900.003418     14.676604
    9167           0      -304.227173  -2076.948730  -1260.003418     12.512834
    9168           0      -304.227173  -2076.948730  -1620.003418     10.349164
    9169           0      -304.227173  -2076.948730  -1980.003540      8.569250
    9170           0      -304.227173  -2076.948730  -2340.003906      7.547915
    9171           0      -304.227173  -2076.948730  -2700.003906      7.602147
    9172           0      -304.227173  -2076.948730  -3060.003418      8.781855
    9173           0      -304.227173  -2076.948730  -3420.003418     10.773749
    9174           0      -304.227173  -2076.948730  -3780.003418     13.248905
    9175           0      -304.227173  -2076.948730  -4140.003906     16.010921
    9176           0      -304.227173  -2076.948730  -4500.003906     18.922947
    9177           0      -304.227173  -2076.948730  -4860.003906     21.895317
    9178           0      -304.227173  -2076.948730  -5220.003906     24.857304
    9179           0      -304.227173  -2076.948730  -5580.003906     27.758396
    9180           0      -304.227173  -2076.948730  -5940.003906     30.561567
    9181           0      -304.227173  -2076.948730  -6300.003906     33.242737
    9182           0      -304.227173  -2076.948730  -6660.003906     35.788380
    9183           0      -304.227173  -2076.948730  -7020.003906     38.194855
    9184           0      -304.227173  -2076.948730  -7380.003906     40.467293
    9185           0      -304.227173  -2076.948730  -7740.003906     42.619225
    9186           0      -304.227173  -2076.948730  -8100.003906     44.671616
    9187           0      -304.227173  -2076.948730  -8460.003906     46.652328
    9188           0      -304.227173  -2076.948730  -8820.003906     48.594730
    9189           0      -304.227173  -2076.948730  -9180.003906     50.536121
    9190           0      -304.227173  -2076.948730  -9540.003906     52.515442
    9191           0      -304.227173  -2076.948730  -9900.003906     54.567898
    9192           0      -304.227173  -2076.948730  -10260.00390     56.722984
    9193           0      -304.227173  -2076.948730  -10620.00390     58.990402
    9194           0      -304.227173  -2076.948730  -10980.00390     61.374195
    9195           0      -304.227173  -2076.948730  -11340.00390     63.841751
    9196           0      -304.227173  -2076.948730  -11700.00390     66.399925
    9197           0      -304.227173  -2076.948730  -12060.00390     68.974548
    9198           0      -304.227173  -2076.948730  -12420.00390     71.672859
    9199           0      -304.227173  -2076.948730  -12780.00390     74.218567
    9200           0      -304.227173  -2076.948730  -13140.00390     77.306404
    9201           0      -304.227173  -2076.948730  -13500.00390     78.964996
    9202           0      -304.227173  -2076.948730  -13860.00390     84.885963
    9203           0      -304.227173  -2076.948730  -14220.00293     79.642410
    9204           0      -182.948608  -2091.124023   -180.003326     16.977215
    9205           0      -182.948608  -2091.124023   -540.003357     16.144741
    9206           0      -182.948608  -2091.124023   -900.003418     13.392094
    9207           0      -182.948608  -2091.124023  -1260.003418     11.384234
    9208           0      -182.948593  -2091.124023  -1620.003418      9.519417
    9209           0      -182.948593  -2091.124023  -1980.003418      8.140349
    9210           0      -182.948593  -2091.124023  -2340.003418      7.688323
    9211           0      -182.948593  -2091.124023  -2700.003418      8.333259
    9212           0      -182.948593  -2091.124023  -3060.003418      9.915343
    9213           0      -182.948593  -2091.124023  -3420.003418     12.113608
    9214           0      -182.948593  -2091.124023  -3780.003662     14.665717
    9215           0      -182.948593  -2091.124023  -4140.003418     17.437963
    9216           0      -182.948593  -2091.124023  -4500.003906     20.329529
    9217           0      -182.948593  -2091.124023  -4860.003906     23.269585
    9218           0      -182.948578  -2091.124023  -5220.003906     26.189098
    9219           0      -182.948563  -2091.124023  -5580.003418     29.028208
    9220           0      -182.948563  -2091.124023  -5940.003418     31.734804
    9221           0      -182.948563  -2091.124023  -6300.003906     34.270241
    9222           0      -182.948563  -2091.124023  -6660.003906     36.611511
    9223           0      -182.948563  -2091.124023  -7020.003906     38.753658
    9224           0      -182.948563  -2091.124023  -7380.003418     40.710407
    9225           0      -182.948563  -2091.124023  -7740.003906     42.513500
    9226           0      -182.948563  -2091.124023  -8100.003906     44.210400
    9227           0      -182.948563  -2091.124023  -8460.003906     45.859787
    9228           0      -182.948563  -2091.124023  -8820.003906     47.525478
    9229           0      -182.948563  -2091.124023  -9180.003906     49.267754
    9230           0      -182.948563  -2091.124023  -9540.002930     51.136230
    9231           0      -182.948563  -2091.124023  -9900.003906     53.160500
    9232           0      -182.948563  -2091.124023  -10260.00390     55.352436
    9233           0      -182.948563  -2091.124023  -10620.00390     57.697174
    9234           0      -182.948563  -2091.124023  -10980.00390     60.181988
    9235           0      -182.948563  -2091.124023  -11340.00390     62.762009
    9236           0      -182.948563  -2091.124023  -11700.00390     65.451721
    9237           0      -182.948563  -2091.124023  -12060.00390     68.164284
    9238           0      -182.948547  -2091.124023  -12420.00390     71.032692
    9239           0      -182.948547  -2091.124023  -12780.00390     73.725998
    9240           0      -182.948547  -2091.124023  -13140.00390     77.019821
    9241           0      -182.948547  -2091.124023  -13500.00390     78.793900
    9242           0      -182.948547  -2091.124023  -13860.00390     84.957710
    9243           0      -182.948578  -2091.124023  -14220.00293     79.762932
    9244           0       -61.051060  -2098.223633   -180.003326     16.141804
    9245           0       -61.051060  -2098.223633   -540.003357     15.356504
    9246           0       -61.051060  -2098.223633   -900.003418     12.752251
    9247           0       -61.051060  -2098.223633  -1260.003418     10.851858
    9248           0       -61.051056  -2098.223633  -1620.003418      9.166093
    9249           0       -61.051048  -2098.223633  -1980.003540      8.025075
    9250           0       -61.051048  -2098.223633  -2340.003662      7.871791
    9251           0       -61.051048  -2098.223633  -2700.003662      8.786643
    9252           0       -61.051048  -2098.223633  -3060.003418     10.539994
    9253           0       -61.051048  -2098.223633  -3420.003906     12.828255
    9254           0       -61.051048  -2098.223633  -3780.003906     15.416297
    9255           0       -61.051048  -2098.223633  -4140.003906     18.194353
    9256           0       -61.051048  -2098.223633  -4500.003906     21.078421
    9257           0       -61.051048  -2098.223633  -4860.003906     24.008196
    9258           0       -61.051041  -2098.223633  -5220.003906     26.915443
    9259           0       -61.051037  -2098.223633  -5580.003906     29.732960
    9260           0       -61.051037  -2098.223633  -5940.003418     32.396160
    9261           0       -61.051037  -2098.223633  -6300.003906     34.853428
    9262           0       -61.051037  -2098.223633  -6660.003906     37.071712
    9263           0       -61.051037  -2098.223633  -7020.003906     39.041901
    9264           0       -61.051037  -2098.223633  -7380.003906     40.780834
    9265           0       -61.051037  -2098.223633  -7740.003906     42.331421
    9266           0       -61.051037  -2098.223633  -8100.003418     43.759438
    9267           0       -61.051037  -2098.223633  -8460.003906     45.146862
    9268           0       -61.051033  -2098.223633  -8820.003906     46.581429
    9269           0       -61.051025  -2098.223633  -9180.003906     48.142712
    9270           0       -61.051025  -2098.223633  -9540.003906     49.889565
    9271           0       -61.051025  -2098.223633  -9900.003906     51.848492
    9272           0       -61.051025  -2098.223633  -10260.00390     54.018429
    9273           0       -61.051025  -2098.223633  -10620.00390     56.368214
    9274           0       -61.051025  -2098.223633  -10980.00390     58.874561
    9275           0       -61.051025  -2098.223633  -11340.00390     61.487339
    9276           0       -61.051025  -2098.223633  -11700.00390     64.225662
    9277           0       -61.051025  -2098.223633  -12060.00390     66.996330
    9278           0       -61.051025  -2098.223633  -12420.00390     69.943329
    9279           0       -61.051018  -2098.223633  -12780.00390     72.707787
    9280           0       -61.051014  -2098.223633  -13140.00390     76.100739
    9281           0       -61.051014  -2098.223633  -13500.00390     77.940308
    9282           0       -61.051014  -2098.223633  -13860.00390     84.200294
    9283           0       -61.051037  -2098.223633  -14220.00293     79.092377
    9284           0        61.053070  -2098.223633   -180.003326     16.226227
    9285           0        61.053070  -2098.223633   -540.003357     15.517711
    9286           0        61.053070  -2098.223633   -900.003418     12.903401
    9287           0        61.053070  -2098.223633  -1260.003418     11.020459
    9288           0        61.053070  -2098.223633  -1620.003418      9.311356
    9289           0        61.053070  -2098.223633  -1980.003540      8.113278
    9290           0        61.053070  -2098.223633  -2340.003906      7.858102
    9291           0        61.053070  -2098.223633  -2700.003906      8.658792
    9292           0        61.053070  -2098.223633  -3060.003418     10.322248
    9293           0        61.053074  -2098.223633  -3420.003418     12.546021
    9294           0        61.053078  -2098.223633  -3780.003418     15.086144
    9295           0        61.053078  -2098.223633  -4140.003906     17.823360
    9296           0        61.053078  -2098.223633  -4500.003906     20.667898
    9297           0        61.053078  -2098.223633  -4860.003906     23.556152
    9298           0        61.053078  -2098.223633  -5220.003906     26.418562
    9299           0        61.053078  -2098.223633  -5580.003906     29.187473
    9300           0        61.053078  -2098.223633  -5940.003906     31.798157
    9301           0        61.053078  -2098.223633  -6300.003906     34.198738
    9302           0        61.053078  -2098.223633  -6660.003906     36.355816
    9303           0        61.053078  -2098.223633  -7020.003906     38.259899
    9304           0        61.053078  -2098.223633  -7380.003906     39.927715
    9305           0        61.053078  -2098.223633  -7740.003906     41.402531
    9306           0        61.053078  -2098.223633  -8100.003906     42.751244
    9307           0        61.053078  -2098.223633  -8460.003906     44.057812
    9308           0        61.053078  -2098.223633  -8820.003906     45.412720
    9309           0        61.053078  -2098.223633  -9180.003906     46.898582
    9310           0        61.053078  -2098.223633  -9540.003906     48.576984
    9311           0        61.053078  -2098.223633  -9900.003906     50.476051
    9312           0        61.053078  -2098.223633  -10260.00390     52.594933
    9313           0        61.053078  -2098.223633  -10620.00390     54.901405
    9314           0        61.053078  -2098.223633  -10980.00390     57.370499
    9315           0        61.053082  -2098.223633  -11340.00390     59.950573
    9316           0        61.053082  -2098.223633  -11700.00390     62.659695
    9317           0        61.053082  -2098.223633  -12060.00390     65.404289
    9318           0        61.053082  -2098.223633  -12420.00390     68.326981
    9319           0        61.053082  -2098.223633  -12780.00390     71.071198
    9320           0        61.053082  -2098.223633  -13140.00390     74.437332
    9321           0        61.053082  -2098.223633  -13500.00390     76.275726
    9322           0        61.053082  -2098.223633  -13860.00390     82.459518
    9323           0        61.053078  -2098.223633  -14220.00293     77.472435
    9324           0       182.950684  -2091.123779   -180.003326     17.254742
    9325           0       182.950684  -2091.123779   -540.003357     16.646868
    9326           0       182.950684  -2091.123779   -900.003418     13.864733
    9327           0       182.950684  -2091.123779  -1260.003418     11.908422
    9328           0       182.950684  -2091.123779  -1620.003418      9.977249
    9329           0       182.950684  -2091.123779  -1980.003418      8.435807
    9330           0       182.950684  -2091.123779  -2340.003418      7.665733
    9331           0       182.950684  -2091.123779  -2700.003418      7.919885
    9332           0       182.950684  -2091.123779  -3060.003418      9.180374
    9333           0       182.950684  -2091.123779  -3420.003418     11.152950
    9334           0       182.950684  -2091.123779  -3780.003662     13.541647
    9335           0       182.950699  -2091.123779  -4140.003418     16.176353
    9336           0       182.950714  -2091.123779  -4500.003906     18.935436
    9337           0       182.950714  -2091.123779  -4860.003906     21.737986
    9338           0       182.950714  -2091.123779  -5220.003906     24.511450
    9339           0       182.950714  -2091.123779  -5580.003418     27.195442
    9340           0       182.950714  -2091.123779  -5940.003418     29.737988
    9341           0       182.950714  -2091.123779  -6300.003906     32.100471
    9342           0       182.950714  -2091.123779  -6660.003906     34.259491
    9343           0       182.950714  -2091.123779  -7020.003906     36.209747
    9344           0       182.950714  -2091.123779  -7380.003418     37.965042
    9345           0       182.950714  -2091.123779  -7740.003906     39.558308
    9346           0       182.950714  -2091.123779  -8100.003906     41.039707
    9347           0       182.950714  -2091.123779  -8460.003906     42.472366
    9348           0       182.950714  -2091.123779  -8820.003906     43.925976
    9349           0       182.950714  -2091.123779  -9180.003906     45.467369
    9350           0       182.950714  -2091.123779  -9540.002930     47.152073
    9351           0       182.950729  -2091.123779  -9900.003906     49.013565
    9352           0       182.950729  -2091.123779  -10260.00390     51.064651
    9353           0       182.950729  -2091.123779  -10620.00390     53.288425
    9354           0       182.950729  -2091.123779  -10980.00390     55.668259
    9355           0       182.950729  -2091.123779  -11340.00390     58.155327
    9356           0       182.950729  -2091.123779  -11700.00390     60.760910
    9357           0       182.950729  -2091.123779  -12060.00390     63.397167
    9358           0       182.950729  -2091.123779  -12420.00390     66.193001
    9359           0       182.950729  -2091.123779  -12780.00390     68.825409
    9360           0       182.950729  -2091.123779  -13140.00390     72.037224
    9361           0       182.950745  -2091.123535  -13500.00390     73.807159
    9362           0       182.950745  -2091.123535  -13860.00390     79.739494
    9363           0       182.950714  -2091.123535  -14220.00293     74.908073
    9364           0       304.229187  -2076.948242   -180.003326     19.059895
    9365           0       304.229187  -2076.948242   -540.003357     18.576248
    9366           0       304.229187  -2076.948242   -900.003418     15.503219
    9367           0       304.229187  -2076.948242  -1260.003418     13.423393
    9368           0       304.229187  -2076.948242  -1620.003418     11.151266
    9369           0       304.229187  -2076.948242  -1980.003540      9.123686
    9370           0       304.229187  -2076.948242  -2340.003662      7.552522
    9371           0       304.229187  -2076.948242  -2700.003662      6.801206
    9372           0       304.229187  -2076.948242  -3060.003418      7.224024
    9373           0       304.229187  -2076.948242  -3420.003906      8.703236
    9374           0       304.229187  -2076.948242  -3780.003906     10.840524
    9375           0       304.229187  -2076.948242  -4140.003906     13.334360
    9376           0       304.229187  -2076.948242  -4500.003906     15.994203
    9377           0       304.229187  -2076.948242  -4860.003906     18.710546
    9378           0       304.229187  -2076.948242  -5220.003906     21.408113
    9379           0       304.229187  -2076.948242  -5580.003906     24.037565
    9380           0       304.229187  -2076.948242  -5940.003418     26.564083
    9381           0       304.229187  -2076.948242  -6300.003906     28.965380
    9382           0       304.229187  -2076.948242  -6660.003906     31.228842
    9383           0       304.229187  -2076.948242  -7020.003906     33.351227
    9384           0       304.229187  -2076.948242  -7380.003906     35.338036
    9385           0       304.229187  -2076.948242  -7740.003906     37.203609
    9386           0       304.229187  -2076.948242  -8100.003418     38.970612
    9387           0       304.229187  -2076.948242  -8460.003906     40.669701
    9388           0       304.229187  -2076.948242  -8820.003906     42.338165
    9389           0       304.229187  -2076.948242  -9180.003906     44.017986
    9390           0       304.229187  -2076.948242  -9540.003906     45.752975
    9391           0       304.229218  -2076.948242  -9900.003906     47.582355
    9392           0       304.229248  -2076.948242  -10260.00390     49.537884
    9393           0       304.229248  -2076.948242  -10620.00390     51.628746
    9394           0       304.229248  -2076.948242  -10980.00390     53.855766
    9395           0       304.229248  -2076.948242  -11340.00390     56.181728
    9396           0       304.229248  -2076.948242  -11700.00390     58.608601
    9397           0       304.229248  -2076.948242  -12060.00390     61.060646
    9398           0       304.229248  -2076.948242  -12420.00390     63.638836
    9399           0       304.229248  -2076.948242  -12780.00390     66.081085
    9400           0       304.229248  -2076.948242  -13140.00390     69.028717
    9401           0       304.229248  -2076.948242  -13500.00390     70.675583
    9402           0       304.229248  -2076.948242  -13860.00390     76.206345
    9403           0       304.229187  -2076.948242  -14220.00293     71.562881
    9404           0       424.478271  -2055.745117   -180.003326     21.305038
    9405           0       424.478271  -2055.745117   -540.003357     20.966118
    9406           0       424.478271  -2055.745117   -900.003418     17.542772
    9407           0       424.478271  -2055.745117  -1260.003418     15.342665
    9408           0       424.478271  -2055.745117  -1620.003418     12.716980
    9409           0       424.478271  -2055.745117  -1980.003540     10.252786
    9410           0       424.478271  -2055.745117  -2340.003906      7.899454
    9411           0       424.478271  -2055.745117  -2700.003906      5.901845
    9412           0       424.478271  -2055.745117  -3060.003418      4.834829
    9413           0       424.478271  -2055.745117  -3420.003418      5.373440
    9414           0       424.478271  -2055.745117  -3780.003418      7.223281
    9415           0       424.478271  -2055.745117  -4140.003906      9.686170
    9416           0       424.478271  -2055.745117  -4500.003906     12.392680
    9417           0       424.478271  -2055.745117  -4860.003906     15.186406
    9418           0       424.478271  -2055.745117  -5220.003906     17.986580
    9419           0       424.478271  -2055.745117  -5580.003906     20.747948
    9420           0       424.478271  -2055.745117  -5940.003906     23.441286
    9421           0       424.478271  -2055.745117  -6300.003906     26.047197
    9422           0       424.478271  -2055.745117  -6660.003906     28.552076
    9423           0       424.478271  -2055.745117  -7020.003906     30.946501
    9424           0       424.478271  -2055.745117  -7380.003906     33.224548
    9425           0       424.478271  -2055.745117  -7740.003906     35.383869
    9426           0       424.478271  -2055.745117  -8100.003906     37.426407
    9427           0       424.478271  -2055.745117  -8460.003906     39.359760
    9428           0       424.478271  -2055.745117  -8820.003906     41.198967
    9429           0       424.478271  -2055.745117  -9180.003906     42.968090
    9430           0       424.478271  -2055.745117  -9540.003906     44.701626
    9431           0       424.478271  -2055.745117  -9900.003906     46.441208
    9432           0       424.478271  -2055.745117  -10260.00390     48.232994
    9433           0       424.478271  -2055.745117  -10620.00390     50.110657
    9434           0       424.478271  -2055.745117  -10980.00390     52.097588
    9435           0       424.478271  -2055.745117  -11340.00390     54.177521
    9436           0       424.478271  -2055.745117  -11700.00390     56.347538
    9437           0       424.478271  -2055.745117  -12060.00390     58.547997
    9438           0       424.478302  -2055.745117  -12420.00390     60.840427
    9439           0       424.478302  -2055.745117  -12780.00390     63.037418
    9440           0       424.478302  -2055.745117  -13140.00390     65.648300
    9441           0       424.478302  -2055.745117  -13500.00390     67.137253
    9442           0       424.478302  -2055.745117  -13860.00390     72.173256
    9443           0       424.478271  -2055.745117  -14220.00293     67.739754
    9444           0       543.291138  -2027.586060   -180.003326     23.525724
    9445           0       543.291138  -2027.586060   -540.003357     23.343113
    9446           0       543.291138  -2027.586060   -900.003418     19.592821
    9447           0       543.291138  -2027.586060  -1260.003418     17.326387
    9448           0       543.291138  -2027.586060  -1620.003418     14.426467
    9449           0       543.291138  -2027.586060  -1980.003418     11.710737
    9450           0       543.291138  -2027.586060  -2340.003418      8.896566
    9451           0       543.291138  -2027.586060  -2700.003418      6.081277
    9452           0       543.291138  -2027.586060  -3060.003418      3.305056
    9453           0       543.291138  -2027.586060  -3420.003418      1.526171
    9454           0       543.291138  -2027.586060  -3780.003662      3.598430
    9455           0       543.291138  -2027.586060  -4140.003418      6.664844
    9456           0       543.291138  -2027.585938  -4500.003906      9.883265
    9457           0       543.291138  -2027.585938  -4860.003906     13.139783
    9458           0       543.291138  -2027.585938  -5220.003906     16.374945
    9459           0       543.291138  -2027.585938  -5580.003418     19.543013
    9460           0       543.291138  -2027.585938  -5940.003418     22.606165
    9461           0       543.291138  -2027.585938  -6300.003906     25.534378
    9462           0       543.291138  -2027.585938  -6660.003906     28.305449
    9463           0       543.291138  -2027.585938  -7020.003906     30.904778
    9464           0       543.291138  -2027.585938  -7380.003418     33.324707
    9465           0       543.291138  -2027.585938  -7740.003906     35.564037
    9466           0       543.291138  -2027.585938  -8100.003906     37.627380
    9467           0       543.291138  -2027.585938  -8460.003906     39.525402
    9468           0       543.291138  -2027.585938  -8820.003906     41.275238
    9469           0       543.291138  -2027.585938  -9180.003906     42.901733
    9470           0       543.291138  -2027.585938  -9540.002930     44.438866
    9471           0       543.291138  -2027.585938  -9900.003906     45.928959
    9472           0       543.291138  -2027.585938  -10260.00390     47.422394
    9473           0       543.291138  -2027.585938  -10620.00390     48.966480
    9474           0       543.291138  -2027.585938  -10980.00390     50.601925
    9475           0       543.291138  -2027.585938  -11340.00390     52.338451
    9476           0       543.291138  -2027.585938  -11700.00390     54.173664
    9477           0       543.291138  -2027.585938  -12060.00390     56.069729
    9478           0       543.291138  -2027.585938  -12420.00390     58.037834
    9479           0       543.291138  -2027.585938  -12780.00390     59.970253
    9480           0       543.291138  -2027.585938  -13140.00390     62.219311
    9481           0       543.291138  -2027.585938  -13500.00390     63.551270
    9482           0       543.291138  -2027.585938  -13860.00390     68.066650
    9483           0       543.291138  -2027.586060  -14220.00293     63.861832
    9484           0       660.265625  -1992.566162   -180.003326     25.188017
    9485           0       660.265625  -1992.566162   -540.003357     25.163940
    9486           0       660.265625  -1992.566162   -900.003418     21.202606
    9487           0       660.265625  -1992.566162  -1260.003418     18.971521
    9488           0       660.265625  -1992.566162  -1620.003418     15.950605
    9489           0       660.265625  -1992.566162  -1980.003540     13.223456
    9490           0       660.265625  -1992.566162  -2340.003662     10.352661
    9491           0       660.265625  -1992.566162  -2700.003662      7.535485
    9492           0       660.265625  -1992.566162  -3060.003418      4.885918
    9493           0       660.265625  -1992.566162  -3420.003906      3.470932
    9494           0       660.265625  -1992.566162  -3780.003906      5.021162
    9495           0       660.265625  -1992.566162  -4140.003906      8.168026
    9496           0       660.265625  -1992.566162  -4500.003906     11.754112
    9497           0       660.265625  -1992.565918  -4860.003906     15.453380
    9498           0       660.265625  -1992.565918  -5220.003906     19.121824
    9499           0       660.265625  -1992.565918  -5580.003906     22.665270
    9500           0       660.265625  -1992.565918  -5940.003418     26.015228
    9501           0       660.265625  -1992.565918  -6300.003906     29.122053
    9502           0       660.265625  -1992.565918  -6660.003906     31.953623
    9503           0       660.265625  -1992.565918  -7020.003906     34.493690
    9504           0       660.265625  -1992.565918  -7380.003906     36.740768
    9505           0       660.265625  -1992.565918  -7740.003906     38.706215
    9506           0       660.265625  -1992.565918  -8100.003418     40.412502
    9507           0       660.265625  -1992.565918  -8460.003906     41.890930
    9508           0       660.265625  -1992.565918  -8820.003906     43.179863
    9509           0       660.265625  -1992.565918  -9180.003906     44.322533
    9510           0       660.265625  -1992.565918  -9540.003906     45.366360
    9511           0       660.265625  -1992.565918  -9900.003906     46.361122
    9512           0       660.265625  -1992.565918  -10260.00390     47.360027
    9513           0       660.265625  -1992.565918  -10620.00390     48.415405
    9514           0       660.265625  -1992.565918  -10980.00390     49.575642
    9515           0       660.265625  -1992.565918  -11340.00390     50.872593
    9516           0       660.265625  -1992.565918  -11700.00390     52.306957
    9517           0       660.265625  -1992.565918  -12060.00390     53.867008
    9518           0       660.265625  -1992.565918  -12420.00390     55.508999
    9519           0       660.265625  -1992.565918  -12780.00390     57.198158
    9520           0       660.265625  -1992.565918  -13140.00390     59.119915
    9521           0       660.265625  -1992.565918  -13500.00390     60.331779
    9522           0       660.265625  -1992.565918  -13860.00390     64.388672
    9523           0       660.265625  -1992.566162  -14220.00293     60.418182
    9524           0       775.005920  -1950.803833   -180.003326     25.750334
    9525           0       775.005920  -1950.803833   -540.003357     25.871815
    9526           0       775.005920  -1950.803833   -900.003418     21.915606
    9527           0       775.005920  -1950.803833  -1260.003418     19.864271
    9528           0       775.005920  -1950.803833  -1620.003418     16.936295
    9529           0       775.005920  -1950.803833  -1980.003540     14.443423
    9530           0       775.005920  -1950.803833  -2340.003906     11.860621
    9531           0       775.005920  -1950.803833  -2700.003906      9.625829
    9532           0       775.005920  -1950.803833  -3060.003418      8.182431
    9533           0       775.005920  -1950.803833  -3420.003418      8.462518
    9534           0       775.005920  -1950.803833  -3780.003418     10.636069
    9535           0       775.005920  -1950.803833  -4140.003906     13.975884
    9536           0       775.005920  -1950.803833  -4500.003906     17.830875
    9537           0       775.005920  -1950.803833  -4860.003906     21.831982
    9538           0       775.005920  -1950.803833  -5220.003906     25.765625
    9539           0       775.005920  -1950.803833  -5580.003906     29.494423
    9540           0       775.005920  -1950.803833  -5940.003906     32.926670
    9541           0       775.005920  -1950.803833  -6300.003906     36.001350
    9542           0       775.005920  -1950.803833  -6660.003906     38.682343
    9543           0       775.005920  -1950.803833  -7020.003906     40.954433
    9544           0       775.005920  -1950.803833  -7380.003906     42.821239
    9545           0       775.005920  -1950.803833  -7740.003906     44.303345
    9546           0       775.005920  -1950.803833  -8100.003906     45.436447
    9547           0       775.005920  -1950.803833  -8460.003906     46.269367
    9548           0       775.005920  -1950.803833  -8820.003906     46.861210
    9549           0       775.005920  -1950.803833  -9180.003906     47.278667
    9550           0       775.005920  -1950.803833  -9540.003906     47.592224
    9551           0       775.005920  -1950.803833  -9900.003906     47.873131
    9552           0       775.005920  -1950.803833  -10260.00390     48.190189
    9553           0       775.005920  -1950.803833  -10620.00390     48.608852
    9554           0       775.005920  -1950.803833  -10980.00390     49.184689
    9555           0       775.005920  -1950.803833  -11340.00390     49.968628
    9556           0       775.005920  -1950.803833  -11700.00390     50.963848
    9557           0       775.005920  -1950.803833  -12060.00390     52.187565
    9558           0       775.005920  -1950.803833  -12420.00390     53.542751
    9559           0       775.005920  -1950.803833  -12780.00390     55.054882
    9560           0       775.005920  -1950.803833  -13140.00390     56.744728
    9561           0       775.005920  -1950.803833  -13500.00390     57.916222
    9562           0       775.005920  -1950.803833  -13860.00390     61.661167
    9563           0       775.005920  -1950.803833  -14220.00293     57.924023
    9564           0       887.123901  -1902.440918   -180.003326     24.728682
    9565           0       887.123901  -1902.440918   -540.003357     24.975483
    9566           0       887.123901  -1902.440918   -900.003418     21.334549
    9567           0       887.123901  -1902.440918  -1260.003418     19.645279
    9568           0       887.123901  -1902.440918  -1620.003418     17.067781
    9569           0       887.123901  -1902.440918  -1980.003418     15.048600
    9570           0       887.123901  -1902.440918  -2340.003418     13.080950
    9571           0       887.123901  -1902.440918  -2700.003418     11.901069
    9572           0       887.123901  -1902.440918  -3060.003418     12.064105
    9573           0       887.123901  -1902.440918  -3420.003418     13.977910
    9574           0       887.123901  -1902.440918  -3780.003662     17.249479
    9575           0       887.123901  -1902.440918  -4140.003418     21.269491
    9576           0       887.123901  -1902.440918  -4500.003906     25.570910
    9577           0       887.123901  -1902.440918  -4860.003906     29.854559
    9578           0       887.123901  -1902.440918  -5220.003906     33.930599
    9579           0       887.123901  -1902.440918  -5580.003418     37.677071
    9580           0       887.123901  -1902.440918  -5940.003418     41.016514
    9581           0       887.123901  -1902.440918  -6300.003906     43.901867
    9582           0       887.123901  -1902.440918  -6660.003906     46.308960
    9583           0       887.123901  -1902.440918  -7020.003906     48.231785
    9584           0       887.123901  -1902.440796  -7380.003418     49.680332
    9585           0       887.123901  -1902.440796  -7740.003906     50.679035
    9586           0       887.123901  -1902.440796  -8100.003906     51.266273
    9587           0       887.123901  -1902.440796  -8460.003906     51.493526
    9588           0       887.123901  -1902.440796  -8820.003906     51.425026
    9589           0       887.123901  -1902.440796  -9180.003906     51.136234
    9590           0       887.123901  -1902.440796  -9540.002930     50.712784
    9591           0       887.123901  -1902.440796  -9900.003906     50.246632
    9592           0       887.123901  -1902.440796  -10260.00390     49.832512
    9593           0       887.123901  -1902.440796  -10620.00390     49.562477
    9594           0       887.123901  -1902.440796  -10980.00390     49.514992
    9595           0       887.123901  -1902.440796  -11340.00390     49.765972
    9596           0       887.123901  -1902.440796  -11700.00390     50.330841
    9597           0       887.123901  -1902.440796  -12060.00390     51.256851
    9598           0       887.123901  -1902.440796  -12420.00390     52.408531
    9599           0       887.123901  -1902.440796  -12780.00390     53.850266
    9600           0       887.123901  -1902.440796  -13140.00390     55.464893
    9601           0       887.123901  -1902.440796  -13500.00390     56.710182
    9602           0       887.123901  -1902.440796  -13860.00390     60.378822
    9603           0       887.123901  -1902.440796  -14220.00293     56.858372
    9604           0       996.240112  -1847.640503   -180.003326     21.799740
    9605           0       996.240112  -1847.640503   -540.003357     22.143156
    9606           0       996.240112  -1847.640503   -900.003418     19.218134
    9607           0       996.240112  -1847.640503  -1260.003418     18.097460
    9608           0       996.240112  -1847.640503  -1620.003418     16.162912
    9609           0       996.240112  -1847.640503  -1980.003540     14.900782
    9610           0       996.240112  -1847.640503  -2340.003662     14.016399
    9611           0       996.240112  -1847.640503  -2700.003662     14.459353
    9612           0       996.240112  -1847.640503  -3060.003418     16.501516
    9613           0       996.240112  -1847.640503  -3420.003906     19.951149
    9614           0       996.240112  -1847.640503  -3780.003906     24.215221
    9615           0       996.240112  -1847.640503  -4140.003906     28.797338
    9616           0       996.240112  -1847.640503  -4500.003906     33.355370
    9617           0       996.240112  -1847.640503  -4860.003906     37.675350
    9618           0       996.240112  -1847.640503  -5220.003906     41.626942
    9619           0       996.240112  -1847.640503  -5580.003906     45.134594
    9620           0       996.240112  -1847.640503  -5940.003418     48.158272
    9621           0       996.240112  -1847.640503  -6300.003906     50.681030
    9622           0       996.240112  -1847.640503  -6660.003906     52.701710
    9623           0       996.240173  -1847.640503  -7020.003906     54.230114
    9624           0       996.240173  -1847.640503  -7380.003906     55.285210
    9625           0       996.240173  -1847.640503  -7740.003906     55.893841
    9626           0       996.240173  -1847.640503  -8100.003418     56.091068
    9627           0       996.240173  -1847.640503  -8460.003906     55.920612
    9628           0       996.240173  -1847.640503  -8820.003906     55.436512
    9629           0       996.240173  -1847.640503  -9180.003906     54.704182
    9630           0       996.240173  -1847.640503  -9540.003906     53.802895
    9631           0       996.240173  -1847.640503  -9900.003906     52.825382
    9632           0       996.240173  -1847.640503  -10260.00390     51.877487
    9633           0       996.240173  -1847.640503  -10620.00390     51.073692
    9634           0       996.240173  -1847.640503  -10980.00390     50.521290
    9635           0       996.240173  -1847.640503  -11340.00390     50.332603
    9636           0       996.240173  -1847.640503  -11700.00390     50.551640
    9637           0       996.240173  -1847.640503  -12060.00390     51.270435
    9638           0       996.240173  -1847.640503  -12420.00390     52.339203
    9639           0       996.240173  -1847.640503  -12780.00390     53.850758
    9640           0       996.240173  -1847.640503  -13140.00390     55.589378
    9641           0       996.240173  -1847.640503  -13500.00390     57.055668
    9642           0       996.240173  -1847.640503  -13860.00390     60.947697
    9643           0       996.240173  -1847.640503  -14220.00293     57.621746
    9644           0      1101.985352  -1786.588501   -180.003326     17.006901
    9645           0      1101.985352  -1786.588501   -540.003357     17.418726
    9646           0      1101.985352  -1786.588501   -900.003418     15.690707
    9647           0      1101.985352  -1786.588501  -1260.003418     15.348877
    9648           0      1101.985352  -1786.588501  -1620.003418     14.424795
    9649           0      1101.985352  -1786.588501  -1980.003540     14.387711
    9650           0      1101.985352  -1786.588501  -2340.003906     15.279614
    9651           0      1101.985352  -1786.588501  -2700.003906     17.773613
    9652           0      1101.985352  -1786.588501  -3060.003418     21.547102
    9653           0      1101.985352  -1786.588501  -3420.003418     26.082405
    9654           0      1101.985352  -1786.588501  -3780.003418     30.852753
    9655           0      1101.985352  -1786.588501  -4140.003906     35.520977
    9656           0      1101.985352  -1786.588501  -4500.003906     39.875782
    9657           0      1101.985352  -1786.588501  -4860.003906     43.804169
    9658           0      1101.985352  -1786.588501  -5220.003906     47.250198
    9659           0      1101.985352  -1786.588501  -5580.003906     50.196049
    9660           0      1101.985352  -1786.588501  -5940.003906     52.645107
    9661           0      1101.985352  -1786.588501  -6300.003906     54.614296
    9662           0      1101.985352  -1786.588501  -6660.003906     56.127056
    9663           0      1101.985352  -1786.588501  -7020.003906     57.211086
    9664           0      1101.985352  -1786.588501  -7380.003906     57.895660
    9665           0      1101.985352  -1786.588501  -7740.003906     58.211868
    9666           0      1101.985352  -1786.588501  -8100.003906     58.192314
    9667           0      1101.985352  -1786.588501  -8460.003906     57.872692
    9668           0      1101.985352  -1786.588501  -8820.003906     57.293186
    9669           0      1101.985352  -1786.588501  -9180.003906     56.501331
    9670           0      1101.985352  -1786.588501  -9540.003906     55.555149
    9671           0      1101.985352  -1786.588501  -9900.003906     54.526321
    9672           0      1101.985352  -1786.588501  -10260.00390     53.502869
    9673           0      1101.985352  -1786.588501  -10620.00390     52.591408
    9674           0      1101.985352  -1786.588501  -10980.00390     51.903744
    9675           0      1101.985352  -1786.588501  -11340.00390     51.574177
    9676           0      1101.985352  -1786.588501  -11700.00390     51.676853
    9677           0      1101.985352  -1786.588501  -12060.00390     52.364285
    9678           0      1101.985352  -1786.588501  -12420.00390     53.514435
    9679           0      1101.985352  -1786.588501  -12780.00390     55.253864
    9680           0      1101.985352  -1786.588501  -13140.00390     57.336475
    9681           0      1101.985352  -1786.588501  -13500.00390     59.184467
    9682           0      1101.985352  -1786.588501  -13860.00390     63.644066
    9683           0      1101.985352  -1786.588501  -14220.00293     60.486877
    9684           0      1204.001953  -1719.490967   -180.003326     11.662459
    9685           0      1204.001953  -1719.490967   -540.003357     12.135347
    9686           0      1204.001953  -1719.490967   -900.003418     12.022898
    9687           0      1204.001953  -1719.490967  -1260.003418     12.588415
    9688           0      1204.001953  -1719.490967  -1620.003418     13.167691
    9689           0      1204.001953  -1719.490967  -1980.003418     14.946189
    9690           0      1204.001953  -1719.490967  -2340.003418     17.964462
    9691           0      1204.001953  -1719.490967  -2700.003418     22.135921
    9692           0      1204.001953  -1719.490967  -3060.003418     26.839968
    9693           0      1204.001953  -1719.490967  -3420.003418     31.615349
    9694           0      1204.001953  -1719.490967  -3780.003662     36.132854
    9695           0      1204.001953  -1719.490967  -4140.003418     40.229149
    9696           0      1204.001953  -1719.490967  -4500.003906     43.824806
    9697           0      1204.001953  -1719.490967  -4860.003906     46.902386
    9698           0      1204.001953  -1719.490967  -5220.003906     49.474213
    9699           0      1204.001953  -1719.490967  -5580.003418     51.569489
    9700           0      1204.001953  -1719.490967  -5940.003418     53.225937
    9701           0      1204.001953  -1719.490967  -6300.003906     54.484219
    9702           0      1204.001953  -1719.490967  -6660.003906     55.386299
    9703           0      1204.001953  -1719.490967  -7020.003906     55.973408
    9704           0      1204.001953  -1719.490967  -7380.003418     56.285767
    9705           0      1204.001953  -1719.490967  -7740.003906     56.362282
    9706           0      1204.001953  -1719.490967  -8100.003906     56.240604
    9707           0      1204.001953  -1719.490967  -8460.003906     55.958035
    9708           0      1204.001953  -1719.490967  -8820.003906     55.551514
    9709           0      1204.001953  -1719.490967  -9180.003906     55.059456
    9710           0      1204.001953  -1719.490967  -9540.002930     54.522621
    9711           0      1204.001953  -1719.490967  -9900.003906     53.986256
    9712           0      1204.001953  -1719.490967  -10260.00390     53.502823
    9713           0      1204.001953  -1719.490967  -10620.00390     53.136341
    9714           0      1204.001953  -1719.490967  -10980.00390     52.957661
    9715           0      1204.001953  -1719.490967  -11340.00390     53.070076
    9716           0      1204.001953  -1719.490967  -11700.00390     53.534451
    9717           0      1204.001953  -1719.490967  -12060.00390     54.534187
    9718           0      1204.001953  -1719.490967  -12420.00390     56.018349
    9719           0      1204.001953  -1719.490967  -12780.00390     58.165051
    9720           0      1204.001953  -1719.490967  -13140.00390     60.812389
    9721           0      1204.001953  -1719.490967  -13500.00390     63.186432
    9722           0      1204.001953  -1719.490967  -13860.00390     68.577164
    9723           0      1204.001953  -1719.490967  -14220.00293     65.556000
    9724           0      1301.944458  -1646.575439   -180.003326     11.844809
    9725           0      1301.944458  -1646.575439   -540.003357     12.280856
    9726           0      1301.944458  -1646.575439   -900.003418     12.590331
    9727           0      1301.944458  -1646.575439  -1260.003418     13.502912
    9728           0      1301.944458  -1646.575439  -1620.003418     15.353133
    9729           0      1301.944458  -1646.575439  -1980.003540     18.486343
    9730           0      1301.944458  -1646.575439  -2340.003662     22.569960
    9731           0      1301.944458  -1646.575439  -2700.003662     27.035873
    9732           0      1301.944458  -1646.575439  -3060.003418     31.362761
    9733           0      1301.944458  -1646.575439  -3420.003906     35.309528
    9734           0      1301.944458  -1646.575439  -3780.003906     38.746555
    9735           0      1301.944458  -1646.575439  -4140.003906     41.659058
    9736           0      1301.944458  -1646.575439  -4500.003906     44.063541
    9737           0      1301.944458  -1646.575439  -4860.003906     46.001694
    9738           0      1301.944458  -1646.575439  -5220.003906     47.516964
    9739           0      1301.944458  -1646.575439  -5580.003906     48.654091
    9740           0      1301.944458  -1646.575439  -5940.003418     49.455677
    9741           0      1301.944458  -1646.575439  -6300.003906     49.964718
    9742           0      1301.944458  -1646.575439  -6660.003906     50.223694
    9743           0      1301.944458  -1646.575439  -7020.003906     50.279076
    9744           0      1301.944458  -1646.575439  -7380.003906     50.178497
    9745           0      1301.944458  -1646.575439  -7740.003906     49.976250
    9746           0      1301.944458  -1646.575439  -8100.003418     49.727764
    9747           0      1301.944580  -1646.575439  -8460.003906     49.494804
    9748           0      1301.944580  -1646.575439  -8820.003906     49.336826
    9749           0      1301.944580  -1646.575439  -9180.003906     49.313885
    9750           0      1301.944580  -1646.575439  -9540.003906     49.476303
    9751           0      1301.944580  -1646.575439  -9900.003906     49.864010
    9752           0      1301.944580  -1646.575439  -10260.00390     50.500229
    9753           0      1301.944580  -1646.575439  -10620.00390     51.392632
    9754           0      1301.944580  -1646.575439  -10980.00390     52.530895
    9755           0      1301.944580  -1646.575439  -11340.00390     53.922176
    9756           0      1301.944580  -1646.575439  -11700.00390     55.532154
    9757           0      1301.944580  -1646.575439  -12060.00390     57.470528
    9758           0      1301.944580  -1646.575439  -12420.00390     59.727173
    9759           0      1301.944580  -1646.575439  -12780.00390     62.542618
    9760           0      1301.944580  -1646.575439  -13140.00390     65.983391
    9761           0      1301.944580  -1646.575439  -13500.00390     68.998734
    9762           0      1301.944580  -1646.575439  -13860.00390     75.650803
    9763           0      1301.944580  -1646.575439  -14220.00293     72.740044
    9764           0      1395.481689  -1568.088257   -180.003326     21.141947
    9765           0      1395.481689  -1568.088257   -540.003357     21.628349
    9766           0      1395.481689  -1568.088257   -900.003418     20.234257
    9767           0      1395.481689  -1568.088257  -1260.003418     20.629017
    9768           0      1395.481689  -1568.088257  -1620.003418     22.242006
    9769           0      1395.481689  -1568.088257  -1980.003540     24.954725
    9770           0      1395.481689  -1568.088257  -2340.003906     28.034391
    9771           0      1395.481689  -1568.088257  -2700.003906     30.928547
    9772           0      1395.481689  -1568.088257  -3060.003418     33.446922
    9773           0      1395.481689  -1568.088257  -3420.003418     35.586555
    9774           0      1395.481689  -1568.088257  -3780.003418     37.375042
    9775           0      1395.481689  -1568.088257  -4140.003906     38.863922
    9776           0      1395.481689  -1568.088257  -4500.003906     40.092129
    9777           0      1395.481689  -1568.088257  -4860.003906     41.071423
    9778           0      1395.481689  -1568.088257  -5220.003906     41.813400
    9779           0      1395.481689  -1568.088257  -5580.003906     42.308048
    9780           0      1395.481689  -1568.088257  -5940.003906     42.558460
    9781           0      1395.481689  -1568.088257  -6300.003906     42.561169
    9782           0      1395.481689  -1568.088257  -6660.003906     42.332890
    9783           0      1395.481689  -1568.088257  -7020.003906     41.897427
    9784           0      1395.481689  -1568.088257  -7380.003906     41.303699
    9785           0      1395.481689  -1568.088257  -7740.003906     40.619301
    9786           0      1395.481689  -1568.088257  -8100.003906     39.940723
    9787           0      1395.481689  -1568.088257  -8460.003906     39.388870
    9788           0      1395.481689  -1568.088257  -8820.003906     39.107044
    9789           0      1395.481689  -1568.088257  -9180.003906     39.246006
    9790           0      1395.481689  -1568.088257  -9540.003906     39.943150
    9791           0      1395.481689  -1568.088257  -9900.003906     41.292072
    9792           0      1395.481689  -1568.088257  -10260.00390     43.323132
    9793           0      1395.481689  -1568.088257  -10620.00390     45.991100
    9794           0      1395.481689  -1568.088257  -10980.00390     49.178837
    9795           0      1395.481689  -1568.088257  -11340.00390     52.746300
    9796           0      1395.481689  -1568.088257  -11700.00390     56.488171
    9797           0      1395.481689  -1568.088257  -12060.00390     60.318844
    9798           0      1395.481689  -1568.088257  -12420.00390     64.103935
    9799           0      1395.481689  -1568.088257  -12780.00390     68.056618
    9800           0      1395.481689  -1568.088257  -13140.00390     72.611343
    9801           0      1395.481689  -1568.088257  -13500.00390     76.382713
    9802           0      1395.481689  -1568.088257  -13860.00390     84.561272
    9803           0      1395.481689  -1568.088257  -14220.00293     81.742104
    9804           0      1484.296875  -1484.295166   -180.003326     34.457012
    9805           0      1484.296875  -1484.295166   -540.003357     35.316746
    9806           0      1484.296875  -1484.295166   -900.003418     32.030128
    9807           0      1484.296875  -1484.295166  -1260.003418     31.690573
    9808           0      1484.296875  -1484.295166  -1620.003418     31.765079
    9809           0      1484.296875  -1484.295166  -1980.003418     32.096642
    9810           0      1484.296875  -1484.295166  -2340.003418     31.944269
    9811           0      1484.296875  -1484.295166  -2700.003418     31.492119
    9812           0      1484.296875  -1484.295166  -3060.003418     31.096903
    9813           0      1484.296875  -1484.295166  -3420.003418     31.041243
    9814           0      1484.296875  -1484.295166  -3780.003662     31.439627
    9815           0      1484.296875  -1484.295166  -4140.003418     32.277798
    9816           0      1484.296875  -1484.295166  -4500.003906     33.425636
    9817           0      1484.296875  -1484.295166  -4860.003906     34.702694
    9818           0      1484.296875  -1484.295166  -5220.003906     35.939816
    9819           0      1484.296875  -1484.295166  -5580.003418     36.981449
    9820           0      1484.296875  -1484.295166  -5940.003418     37.715202
    9821           0      1484.296875  -1484.295166  -6300.003906     38.056812
    9822           0      1484.296875  -1484.295166  -6660.003906     37.953636
    9823           0      1484.296875  -1484.295166  -7020.003906     37.388481
    9824           0      1484.296875  -1484.295166  -7380.003418     36.365204
    9825           0      1484.296875  -1484.295166  -7740.003906     34.941879
    9826           0      1484.296875  -1484.295166  -8100.003906     33.205235
    9827           0      1484.296875  -1484.295166  -8460.003906     31.337940
    9828           0      1484.296875  -1484.295166  -8820.003906     29.590258
    9829           0      1484.296875  -1484.295166  -9180.003906     28.359034
    9830           0      1484.296875  -1484.295166  -9540.002930     28.099827
    9831           0      1484.296875  -1484.295166  -9900.003906     29.252096
    9832           0      1484.296875  -1484.295166  -10260.00390     32.014202
    9833           0      1484.296875  -1484.295166  -10620.00390     36.290848
    9834           0      1484.296875  -1484.295166  -10980.00390     41.772034
    9835           0      1484.296875  -1484.295166  -11340.00390     48.079700
    9836           0      1484.296875  -1484.295166  -11700.00390     54.790417
    9837           0      1484.296875  -1484.295166  -12060.00390     61.562542
    9838           0      1484.296875  -1484.295166  -12420.00390     67.984215
    9839           0      1484.296875  -1484.295166  -12780.00390     73.889214
    9840           0      1484.296875  -1484.295166  -13140.00390     80.121819
    9841           0      1484.296875  -1484.295166  -13500.00390     84.868004
    9842           0      1484.296875  -1484.295166  -13860.00390     94.809013
    9843           0      1484.296875  -1484.295166  -14220.00293     92.047356
    9844           0      1568.089844  -1395.479858   -180.003326     49.432159
    9845           0      1568.089844  -1395.479858   -540.003357     50.960411
    9846           0      1568.089844  -1395.479858   -900.003418     45.769276
    9847           0      1568.089844  -1395.479858  -1260.003418     44.061974
    9848           0      1568.089844  -1395.479858  -1620.003418     40.923634
    9849           0      1568.089844  -1395.479858  -1980.003540     36.550182
    9850           0      1568.089844  -1395.479858  -2340.003662     31.191923
    9851           0      1568.089844  -1395.479858  -2700.003662     26.167713
    9852           0      1568.089844  -1395.479858  -3060.003418     22.750368
    9853           0      1568.089844  -1395.479858  -3420.003906     21.919931
    9854           0      1568.089844  -1395.479858  -3780.003906     23.688417
    9855           0      1568.089844  -1395.479858  -4140.003906     27.097921
    9856           0      1568.089844  -1395.479858  -4500.003906     31.145452
    9857           0      1568.089844  -1395.479858  -4860.003906     35.167484
    9858           0      1568.089844  -1395.479858  -5220.003906     38.811699
    9859           0      1568.089844  -1395.479858  -5580.003906     41.861851
    9860           0      1568.089844  -1395.479858  -5940.003418     44.217979
    9861           0      1568.089844  -1395.479858  -6300.003906     45.796921
    9862           0      1568.089844  -1395.479858  -6660.003906     46.579475
    9863           0      1568.089844  -1395.479858  -7020.003906     46.524788
    9864           0      1568.089844  -1395.479858  -7380.003906     45.654072
    9865           0      1568.089844  -1395.479858  -7740.003906     43.948875
    9866           0      1568.089844  -1395.479858  -8100.003418     41.474087
    9867           0      1568.089844  -1395.479858  -8460.003906     38.253494
    9868           0      1568.089844  -1395.479858  -8820.003906     34.452412
    9869           0      1568.089844  -1395.479858  -9180.003906     30.253881
    9870           0      1568.089844  -1395.479858  -9540.003906     26.183453
    9871           0      1568.089844  -1395.479858  -9900.003906     23.078114
    9872           0      1568.089844  -1395.479858  -10260.00390     22.418968
    9873           0      1568.089844  -1395.479858  -10620.00390     25.240673
    9874           0      1568.089844  -1395.479858  -10980.00390     31.332312
    9875           0      1568.089844  -1395.479858  -11340.00390     39.644154
    9876           0      1568.089844  -1395.479858  -11700.00390     49.227760
    9877           0      1568.089844  -1395.479858  -12060.00390     59.416962
    9878           0      1568.089844  -1395.479858  -12420.00390     69.498512
    9879           0      1568.089844  -1395.479858  -12780.00390     78.570541
    9880           0      1568.089844  -1395.479858  -13140.00390     87.392197
    9881           0      1568.089844  -1395.479858  -13500.00390     93.645363
    9882           0      1568.089844  -1395.479858  -13860.00390    105.649139
    9883           0      1568.089844  -1395.479858  -14220.00293    102.976547
    9884           0      1646.576782  -1301.942627   -180.003326     64.959160
    9885           0      1646.576782  -1301.942627   -540.003357     67.275383
    9886           0      1646.576782  -1301.942627   -900.003418     59.590065
    9887           0      1646.576782  -1301.942627  -1260.003418     54.837112
    9888           0      1646.576782  -1301.942627  -1620.003418     45.817303
    9889           0      1646.576782  -1301.942627  -1980.003540     34.552929
    9890           0      1646.576782  -1301.942627  -2340.003906     22.860802
    9891           0      1646.576782  -1301.942627  -2700.003906     13.002651
    9892           0      1646.576782  -1301.942627  -3060.003418     11.032980
    9893           0      1646.576782  -1301.942627  -3420.003418     18.173401
    9894           0      1646.576782  -1301.942627  -3780.003418     27.002686
    9895           0      1646.576782  -1301.942627  -4140.003906     35.420727
    9896           0      1646.576782  -1301.942627  -4500.003906     42.987110
    9897           0      1646.576782  -1301.942627  -4860.003906     49.569237
    9898           0      1646.576782  -1301.942627  -5220.003906     55.136990
    9899           0      1646.576782  -1301.942627  -5580.003906     59.680332
    9900           0      1646.576782  -1301.942627  -5940.003906     63.197121
    9901           0      1646.576782  -1301.942627  -6300.003906     65.713997
    9902           0      1646.576782  -1301.942627  -6660.003906     67.212593
    9903           0      1646.576782  -1301.942627  -7020.003906     67.741890
    9904           0      1646.576782  -1301.942627  -7380.003906     67.261780
    9905           0      1646.576782  -1301.942627  -7740.003906     65.839043
    9906           0      1646.576782  -1301.942627  -8100.003906     63.420380
    9907           0      1646.576782  -1301.942627  -8460.003906     60.094322
    9908           0      1646.576782  -1301.942627  -8820.003906     55.822144
    9909           0      1646.576782  -1301.942627  -9180.003906     50.744423
    9910           0      1646.576782  -1301.942627  -9540.003906     44.930210
    9911           0      1646.576782  -1301.942627  -9900.003906     38.729313
    9912           0      1646.576782  -1301.942627  -10260.00390     32.732964
    9913           0      1646.576782  -1301.942627  -10620.00390     28.298670
    9914           0      1646.576782  -1301.942627  -10980.00390     27.646343
    9915           0      1646.576782  -1301.942627  -11340.00390     32.267204
    9916           0      1646.576782  -1301.942627  -11700.00390     41.417404
    9917           0      1646.576782  -1301.942627  -12060.00390     53.316948
    9918           0      1646.576782  -1301.942627  -12420.00390     66.760666
    9919           0      1646.576782  -1301.942627  -12780.00390     79.906464
    9920           0      1646.576782  -1301.942627  -13140.00390     92.647919
    9921           0      1646.576782  -1301.942627  -13500.00390    101.306877
    9922           0      1646.576782  -1301.942627  -13860.00390    116.044052
    9923           0      1646.576782  -1301.942627  -14220.00293    113.635582
    9924           0      1719.492432  -1204.000000   -180.003326     80.069824
    9925           0      1719.492432  -1204.000000   -540.003357     82.562614
    9926           0      1719.492432  -1204.000000   -900.003418     70.682030
    9927           0      1719.492432  -1204.000000  -1260.003418     59.624763
    9928           0      1719.492432  -1204.000000  -1620.003418     42.209694
    9929           0      1719.492432  -1204.000000  -1980.003418     24.233717
    9930           0      1719.492432  -1204.000000  -2340.003418      8.197645
    9931           0      1719.492432  -1204.000000  -2700.003418     10.338087
    9932           0      1719.492432  -1204.000000  -3060.003418     23.777517
    9933           0      1719.492432  -1204.000000  -3420.003418     36.358162
    9934           0      1719.492432  -1204.000000  -3780.003662     47.418503
    9935           0      1719.492432  -1204.000000  -4140.003418     57.188545
    9936           0      1719.492432  -1204.000000  -4500.003906     65.606506
    9937           0      1719.492432  -1204.000000  -4860.003906     72.802940
    9938           0      1719.492432  -1204.000000  -5220.003906     78.833832
    9939           0      1719.492432  -1204.000000  -5580.003418     83.722694
    9940           0      1719.492432  -1204.000000  -5940.003418     87.582634
    9941           0      1719.492432  -1203.999878  -6300.003906     90.363907
    9942           0      1719.492432  -1203.999878  -6660.003906     92.204712
    9943           0      1719.492432  -1203.999878  -7020.003906     93.007805
    9944           0      1719.492432  -1203.999878  -7380.003418     92.918785
    9945           0      1719.492432  -1203.999878  -7740.003906     91.809418
    9946           0      1719.492432  -1203.999878  -8100.003906     89.827614
    9947           0      1719.492432  -1203.999878  -8460.003906     86.825180
    9948           0      1719.492432  -1203.999878  -8820.003906     82.962517
    9949           0      1719.492432  -1203.999878  -9180.003906     78.086090
    9950           0      1719.492432  -1203.999878  -9540.002930     72.408531
    9951           0      1719.492432  -1203.999878  -9900.003906     65.823235
    9952           0      1719.492432  -1203.999878  -10260.00390     58.729362
    9953           0      1719.492432  -1203.999878  -10620.00390     51.318993
    9954           0      1719.492432  -1203.999878  -10980.00390     44.715679
    9955           0      1719.492432  -1203.999878  -11340.00390     40.422600
    9956           0      1719.492432  -1203.999878  -11700.00390     41.080486
    9957           0      1719.492432  -1203.999878  -12060.00390     47.986122
    9958           0      1719.492432  -1203.999878  -12420.00390     60.414238
    9959           0      1719.492432  -1203.999878  -12780.00390     76.067886
    9960           0      1719.492432  -1203.999878  -13140.00390     93.413475
    9961           0      1719.492432  -1203.999878  -13500.00390    105.849060
    9962           0      1719.492432  -1203.999878  -13860.00390    124.272713
    9963           0      1719.492432  -1203.999878  -14220.00293    122.966225
    9964           0      1786.589478  -1101.983398   -180.003326     93.261978
    9965           0      1786.589478  -1101.983398   -540.003357     93.876320
    9966           0      1786.589478  -1101.983398   -900.003418     74.143433
    9967           0      1786.589478  -1101.983398  -1260.003418     53.705414
    9968           0      1786.589478  -1101.983398  -1620.003418     31.428202
    9969           0      1786.589478  -1101.983398  -1980.003540     20.740528
    9970           0      1786.589478  -1101.983398  -2340.003662     27.188957
    9971           0      1786.589478  -1101.983398  -2700.003662     39.948486
    9972           0      1786.589478  -1101.983398  -3060.003418     52.850487
    9973           0      1786.589478  -1101.983398  -3420.003906     64.486588
    9974           0      1786.589478  -1101.983398  -3780.003906     74.703659
    9975           0      1786.589478  -1101.983398  -4140.003906     83.637428
    9976           0      1786.589478  -1101.983398  -4500.003906     91.210487
    9977           0      1786.589478  -1101.983398  -4860.003906     97.746040
    9978           0      1786.589478  -1101.983398  -5220.003906    103.072334
    9979           0      1786.589478  -1101.983398  -5580.003906    107.543854
    9980           0      1786.589478  -1101.983398  -5940.003418    110.941437
    9981           0      1786.589478  -1101.983398  -6300.003906    113.592728
    9982           0      1786.589478  -1101.983398  -6660.003906    115.273933
    9983           0      1786.589478  -1101.983398  -7020.003906    116.256325
    9984           0      1786.589478  -1101.983398  -7380.003906    116.336945
    9985           0      1786.589478  -1101.983398  -7740.003906    115.718521
    9986           0      1786.589478  -1101.983398  -8100.003418    114.230042
    9987           0      1786.589600  -1101.983398  -8460.003906    112.007233
    9988           0      1786.589600  -1101.983398  -8820.003906    108.913109
    9989           0      1786.589600  -1101.983398  -9180.003906    105.032005
    9990           0      1786.589600  -1101.983398  -9540.003906    100.262085
    9991           0      1786.589600  -1101.983398  -9900.003906     94.676186
    9992           0      1786.589600  -1101.983398  -10260.00390     88.230064
    9993           0      1786.589600  -1101.983398  -10620.00390     81.096001
    9994           0      1786.589600  -1101.983398  -10980.00390     73.426582
    9995           0      1786.589600  -1101.983398  -11340.00390     65.877518
    9996           0      1786.589600  -1101.983398  -11700.00390     59.463848
    9997           0      1786.589600  -1101.983398  -12060.00390     56.405884
    9998           0      1786.589600  -1101.983398  -12420.00390     59.423164
    9999           0      1786.589600  -1101.983398  -12780.00390     69.749733
   10000           0      1786.589600  -1101.983398  -13140.00390     88.221252
   10001           0      1786.589600  -1101.983398  -13500.00390    104.793831
   10002           0      1786.589600  -1101.983398  -13860.00390    127.859947
   10003           0      1786.589478  -1101.983398  -14220.00293    129.225296
   10004           0      1847.641602   -996.238037   -180.003326    101.479469
   10005           0      1847.641602   -996.238037   -540.003357     95.676743
   10006           0      1847.641602   -996.238037   -900.003418     65.123672
   10007           0      1847.641602   -996.238037  -1260.003418     44.483997
   10008           0      1847.641602   -996.238037  -1620.003418     40.882908
   10009           0      1847.641602   -996.238037  -1980.003540     50.953266
   10010           0      1847.641602   -996.238037  -2340.003906     62.813377
   10011           0      1847.641602   -996.238037  -2700.003906     74.685020
   10012           0      1847.641602   -996.238037  -3060.003418     84.970802
   10013           0      1847.641602   -996.238037  -3420.003418     93.930954
   10014           0      1847.641602   -996.238037  -3780.003418    101.721786
   10015           0      1847.641602   -996.238037  -4140.003906    108.162201
   10016           0      1847.641602   -996.238037  -4500.003906    113.860992
   10017           0      1847.641602   -996.238037  -4860.003906    118.368858
   10018           0      1847.641602   -996.238037  -5220.003906    122.380211
   10019           0      1847.641602   -996.238037  -5580.003906    125.389832
   10020           0      1847.641602   -996.238037  -5940.003906    128.016129
   10021           0      1847.641602   -996.238037  -6300.003906    129.812698
   10022           0      1847.641602   -996.238037  -6660.003906    131.254364
   10023           0      1847.641602   -996.238037  -7020.003906    132.001328
   10024           0      1847.641602   -996.238037  -7380.003906    132.366913
   10025           0      1847.641602   -996.238037  -7740.003906    132.126450
   10026           0      1847.641602   -996.238037  -8100.003906    131.440689
   10027           0      1847.641602   -996.238037  -8460.003906    130.185730
   10028           0      1847.641602   -996.238037  -8820.003906    128.395584
   10029           0      1847.641602   -996.238037  -9180.003906    126.018158
   10030           0      1847.641602   -996.238037  -9540.003906    123.000984
   10031           0      1847.641602   -996.238037  -9900.003906    119.326088
   10032           0      1847.641602   -996.238037  -10260.00390    114.914742
   10033           0      1847.641602   -996.238037  -10620.00390    109.749794
   10034           0      1847.641602   -996.238037  -10980.00390    103.829643
   10035           0      1847.641602   -996.238037  -11340.00390     97.162224
   10036           0      1847.641602   -996.238037  -11700.00390     90.089340
   10037           0      1847.641602   -996.238037  -12060.00390     82.959419
   10038           0      1847.641602   -996.238037  -12420.00390     77.527779
   10039           0      1847.641602   -996.238037  -12780.00390     75.507973
   10040           0      1847.641602   -996.238037  -13140.00390     83.278862
   10041           0      1847.641602   -996.238037  -13500.00390     98.214417
   10042           0      1847.641602   -996.238037  -13860.00390    123.680298
   10043           0      1847.641602   -996.238037  -14220.00293    129.688812
   10044           0      1902.441772   -887.121765   -180.003326     97.757065
   10045           0      1902.441772   -887.121765   -540.003357     82.811356
   10046           0      1902.441772   -887.121765   -900.003418     66.857613
   10047           0      1902.441772   -887.121765  -1260.003418     70.197502
   10048           0      1902.441772   -887.121765  -1620.003418     83.676308
   10049           0      1902.441772   -887.121765  -1980.003418     92.981262
   10050           0      1902.441772   -887.121765  -2340.003418    101.784897
   10051           0      1902.441772   -887.121765  -2700.003418    108.641304
   10052           0      1902.441772   -887.121765  -3060.003418    113.952705
   10053           0      1902.441772   -887.121765  -3420.003418    118.724121
   10054           0      1902.441772   -887.121765  -3780.003662    121.972633
   10055           0      1902.441772   -887.121765  -4140.003418    125.212296
   10056           0      1902.441772   -887.121765  -4500.003906    127.233116
   10057           0      1902.441772   -887.121765  -4860.003906    129.396072
   10058           0      1902.441772   -887.121765  -5220.003906    130.686783
   10059           0      1902.441772   -887.121765  -5580.003418    132.116943
   10060           0      1902.441772   -887.121765  -5940.003418    132.977493
   10061           0      1902.441772   -887.121765  -6300.003906    133.912201
   10062           0      1902.441772   -887.121765  -6660.003906    134.512512
   10063           0      1902.441772   -887.121704  -7020.003906    135.093719
   10064           0      1902.441772   -887.121704  -7380.003418    135.508163
   10065           0      1902.441772   -887.121704  -7740.003906    135.793365
   10066           0      1902.441772   -887.121704  -8100.003906    136.016342
   10067           0      1902.441772   -887.121704  -8460.003906    135.985199
   10068           0      1902.441772   -887.121704  -8820.003906    135.933136
   10069           0      1902.441772   -887.121704  -9180.003906    135.489746
   10070           0      1902.441772   -887.121704  -9540.002930    134.992126
   10071           0      1902.441772   -887.121704  -9900.003906    133.966217
   10072           0      1902.441772   -887.121704  -10260.00390    132.747681
   10073           0      1902.441772   -887.121704  -10620.00390    130.901184
   10074           0      1902.441772   -887.121704  -10980.00390    128.558731
   10075           0      1902.441772   -887.121704  -11340.00390    125.610306
   10076           0      1902.441772   -887.121704  -11700.00390    121.603020
   10077           0      1902.441772   -887.121704  -12060.00390    117.316330
   10078           0      1902.441772   -887.121704  -12420.00390    111.156273
   10079           0      1902.441772   -887.121704  -12780.00390    105.938683
   10080           0      1902.441772   -887.121704  -13140.00390     99.263428
   10081           0      1902.441772   -887.121704  -13500.00390    101.698685
   10082           0      1902.441772   -887.121704  -13860.00390    113.151520
   10083           0      1902.441772   -887.121765  -14220.00293    119.869049
   10084           0      1950.804565   -775.003784   -180.003326     80.215347
   10085           0      1950.804565   -775.003784   -540.003357    107.116066
   10086           0      1950.804565   -775.003784   -900.003418    126.399757
   10087           0      1950.804565   -775.003784  -1260.003418    130.346848
   10088           0      1950.804688   -775.003784  -1620.003418    135.503845
   10089           0      1950.804688   -775.003784  -1980.003540    135.406311
   10090           0      1950.804688   -775.003784  -2340.003662    136.250214
   10091           0      1950.804688   -775.003784  -2700.003662    134.319717
   10092           0      1950.804688   -775.003784  -3060.003418    133.636368
   10093           0      1950.804688   -775.003784  -3420.003906    131.197464
   10094           0      1950.804688   -775.003784  -3780.003906    129.825241
   10095           0      1950.804688   -775.003784  -4140.003906    127.478165
   10096           0      1950.804688   -775.003784  -4500.003906    125.942604
   10097           0      1950.804688   -775.003784  -4860.003906    124.014229
   10098           0      1950.804688   -775.003784  -5220.003906    122.689613
   10099           0      1950.804688   -775.003784  -5580.003906    121.375290
   10100           0      1950.804688   -775.003784  -5940.003418    120.511681
   10101           0      1950.804688   -775.003784  -6300.003906    119.921471
   10102           0      1950.804688   -775.003784  -6660.003906    119.665085
   10103           0      1950.804688   -775.003784  -7020.003906    119.846275
   10104           0      1950.804688   -775.003784  -7380.003906    120.257538
   10105           0      1950.804688   -775.003784  -7740.003906    121.207428
   10106           0      1950.804688   -775.003784  -8100.003418    122.273003
   10107           0      1950.804688   -775.003784  -8460.003906    123.944153
   10108           0      1950.804688   -775.003784  -8820.003906    125.581062
   10109           0      1950.804688   -775.003784  -9180.003906    127.879684
   10110           0      1950.804688   -775.003784  -9540.003906    129.931030
   10111           0      1950.804688   -775.003784  -9900.003906    132.709625
   10112           0      1950.804688   -775.003784  -10260.00390    134.933823
   10113           0      1950.804688   -775.003784  -10620.00390    137.982178
   10114           0      1950.804688   -775.003784  -10980.00390    140.034439
   10115           0      1950.804688   -775.003784  -11340.00390    143.071716
   10116           0      1950.804688   -775.003784  -11700.00390    144.447647
   10117           0      1950.804688   -775.003784  -12060.00390    147.104721
   10118           0      1950.804688   -775.003784  -12420.00390    146.827774
   10119           0      1950.804688   -775.003784  -12780.00390    148.679138
   10120           0      1950.804688   -775.003784  -13140.00390    143.268097
   10121           0      1950.804688   -775.003784  -13500.00390    145.664337
   10122           0      1950.804688   -775.003784  -13860.00390    128.137329
   10123           0      1950.804688   -775.003784  -14220.00293    103.244240
   10124           0      1992.908203   -659.120605   -180.003326    192.381836
   10125           0      1992.908203   -659.120605   -540.003357    242.956772
   10126           0      1992.908203   -659.120605   -900.003418    210.511810
   10127           0      1992.908203   -659.120605  -1260.003418    199.214539
   10128           0      1992.908203   -659.120605  -1620.003418    180.588120
   10129           0      1992.908203   -659.120605  -1980.003540    169.500854
   10130           0      1992.908203   -659.120605  -2340.003906    155.216064
   10131           0      1992.908203   -659.120605  -2700.003906    145.370392
   10132           0      1992.908203   -659.120605  -3060.003418    134.041794
   10133           0      1992.908203   -659.120605  -3420.003906    125.341682
   10134           0      1992.908203   -659.120605  -3780.003906    116.301071
   10135           0      1992.908203   -659.120605  -4140.003906    108.911118
   10136           0      1992.908203   -659.120605  -4500.003906    101.904915
   10137           0      1992.908203   -659.120605  -4860.003906     96.049370
   10138           0      1992.908203   -659.120605  -5220.003906     91.010880
   10139           0      1992.908203   -659.120605  -5580.003906     86.882027
   10140           0      1992.908203   -659.120605  -5940.003906     83.799965
   10141           0      1992.908203   -659.120605  -6300.003906     81.520477
   10142           0      1992.908203   -659.120605  -6660.003906     80.368523
   10143           0      1992.908203   -659.120605  -7020.003906     79.969994
   10144           0      1992.908203   -659.120605  -7380.003906     80.675964
   10145           0      1992.908203   -659.120605  -7740.003906     82.099731
   10146           0      1992.908203   -659.120605  -8100.003418     84.553627
   10147           0      1992.908203   -659.120605  -8460.003906     87.680801
   10148           0      1992.908203   -659.120605  -8820.003906     91.765816
   10149           0      1992.908203   -659.120605  -9180.003906     96.455231
   10150           0      1992.908203   -659.120605  -9540.003906    102.070374
   10151           0      1992.908203   -659.120605  -9900.003906    108.181038
   10152           0      1992.908203   -659.120605  -10260.00390    115.244308
   10153           0      1992.908203   -659.120605  -10620.00390    122.656372
   10154           0      1992.908203   -659.120605  -10980.00390    131.105026
   10155           0      1992.908203   -659.120605  -11340.00390    139.801331
   10156           0      1992.908203   -659.120605  -11700.00390    149.602707
   10157           0      1992.908203   -659.120605  -12060.00390    159.933685
   10158           0      1992.908203   -659.120605  -12420.00390    171.010437
   10159           0      1992.908203   -659.120605  -12780.00390    184.327545
   10160           0      1992.908203   -659.120605  -13140.00390    195.995575
   10161           0      1992.908203   -659.120605  -13500.00390    213.970917
   10162           0      1992.908203   -659.120605  -13860.00390    231.557800
   10163           0      1992.908203   -659.120605  -14220.00293    177.902786
   10164           0      2028.065308   -541.565613  -14578.05175    196.886627
   10165           0      2028.065308   -541.565613  -14934.14843    245.947006
   10166           0      2028.065308   -541.565613  -15290.24609    222.737640
   10167           0      2028.065308   -541.565613  -15646.34277    203.619827
   10168           0      2028.065308   -541.565613  -16002.44140    187.977280
   10169           0      2028.065308   -541.565613  -16358.53808    172.932846
   10170           0      2028.065308   -541.565613  -16714.63671    158.640961
   10171           0      2028.065308   -541.565613  -17070.73437    146.391357
   10172           0      2028.065308   -541.565613  -17426.83203    133.721710
   10173           0      2028.065308   -541.565613  -17782.92968    123.177170
   10174           0      2028.065308   -541.565613  -18139.02539    112.164017
   10175           0      2028.065308   -541.565613  -18495.12304    103.033646
   10176           0      2028.065308   -541.565613  -18851.22070     93.674667
   10177           0      2028.065308   -541.565613  -19207.31835     85.903465
   10178           0      2028.065308   -541.565613  -19563.41796     78.128616
   10179           0      2028.065308   -541.565613  -19919.51562     71.647034
   10180           0      2028.065308   -541.565613  -20275.61132     65.294037
   10181           0      2028.065308   -541.565613  -20631.70898     59.958080
   10182           0      2028.065308   -541.565613  -20987.80664     54.811794
   10183           0      2028.065308   -541.565613  -21343.90429     50.463768
   10184           0      2028.065308   -541.565613  -21700.00195     46.376835
   10185           0      2028.065308   -541.565613  -22056.09765     43.012901
   10186           0      2028.065308   -541.565613  -22412.19726     40.122150
   10187           0      2028.065308   -541.565613  -22768.29492     38.151253
   10188           0      2028.065308   -541.565613  -23124.39062     37.112591
   10189           0      2028.065308   -541.565613  -23480.48828     37.472458
   10190           0      2028.065308   -541.565613  -23836.58789     39.244907
   10191           0      2028.065308   -541.565613  -24192.68554     42.768223
   10192           0      2028.065308   -541.565613  -24548.78125     47.691410
   10193           0      2028.065308   -541.565613  -24904.87890     54.351028
   10194           0      2028.065308   -541.565613  -25260.97656     62.017181
   10195           0      2028.065308   -541.565613  -25617.07226     71.397942
   10196           0      2028.065308   -541.565613  -25973.17187     81.410324
   10197           0      2028.065308   -541.565613  -26329.26953     93.295578
   10198           0      2028.065308   -541.565613  -26685.36914    105.741341
   10199           0      2028.065308   -541.565613  -27041.46484    120.117287
   10200           0      2028.065308   -541.565613  -27397.56250    136.046371
   10201           0      2028.065308   -541.565613  -27753.66015    152.265289
   10202           0      2028.065308   -541.565613  -28109.75781    172.833389
   10203           0      2028.065308   -541.565613  -28465.85351    194.618652
   10204           0      2028.065308   -541.565674  -28821.95312    131.742569
   10205           0      2055.883057   -423.895691  -14578.05175    137.062042
   10206           0      2055.883057   -423.895660  -14934.14843    164.579788
   10207           0      2055.883057   -423.895660  -15290.24609    169.560486
   10208           0      2055.883057   -423.895660  -15646.34277    163.002930
   10209           0      2055.883057   -423.895660  -16002.44140    163.817902
   10210           0      2055.883057   -423.895660  -16358.53808    158.121719
   10211           0      2055.883057   -423.895660  -16714.63671    155.157654
   10212           0      2055.883057   -423.895660  -17070.73437    149.326126
   10213           0      2055.883057   -423.895660  -17426.83203    145.095093
   10214           0      2055.883057   -423.895660  -17782.92968    139.283127
   10215           0      2055.883057   -423.895660  -18139.02539    134.612625
   10216           0      2055.883057   -423.895660  -18495.12304    129.048233
   10217           0      2055.883057   -423.895660  -18851.22070    124.396339
   10218           0      2055.883057   -423.895660  -19207.31835    119.302399
   10219           0      2055.883057   -423.895660  -19563.41796    114.989960
   10220           0      2055.883057   -423.895660  -19919.51562    110.559181
   10221           0      2055.883057   -423.895660  -20275.61328    106.824379
   10222           0      2055.883057   -423.895660  -20631.71093    103.212921
   10223           0      2055.883057   -423.895660  -20987.80859    100.237488
   10224           0      2055.883057   -423.895660  -21343.90429     97.570648
   10225           0      2055.883057   -423.895660  -21700.00000     95.495872
   10226           0      2055.883057   -423.895660  -22056.09765     93.870132
   10227           0      2055.883057   -423.895660  -22412.19726     92.798439
   10228           0      2055.883057   -423.895660  -22768.29296     92.270241
   10229           0      2055.883057   -423.895660  -23124.39062     92.249443
   10230           0      2055.883057   -423.895660  -23480.48828     92.810432
   10231           0      2055.883057   -423.895660  -23836.58789     93.805939
   10232           0      2055.883057   -423.895660  -24192.68359     95.354370
   10233           0      2055.883057   -423.895660  -24548.78125     97.220192
   10234           0      2055.883057   -423.895660  -24904.87890     99.540253
   10235           0      2055.883057   -423.895660  -25260.97656    101.994667
   10236           0      2055.883057   -423.895660  -25617.07226    104.744568
   10237           0      2055.883057   -423.895660  -25973.17187    107.335663
   10238           0      2055.883057   -423.895660  -26329.26953    110.006622
   10239           0      2055.883057   -423.895660  -26685.36914    111.994705
   10240           0      2055.883057   -423.895660  -27041.46484    113.602074
   10241           0      2055.883057   -423.895660  -27397.56250    113.639343
   10242           0      2055.883057   -423.895660  -27753.66015    110.339943
   10243           0      2055.883057   -423.895660  -28109.75781    107.757713
   10244           0      2055.883057   -423.895660  -28465.85351     86.361420
   10245           0      2055.883057   -423.895691  -28821.95312     65.121964
   10246           0      2076.948730   -304.226929  -14578.05175    155.274307
   10247           0      2076.948730   -304.226929  -14934.14843    156.315109
   10248           0      2076.948730   -304.226929  -15290.24609    141.926712
   10249           0      2076.948730   -304.226929  -15646.34277    133.972168
   10250           0      2076.948730   -304.226929  -16002.44043    134.335068
   10251           0      2076.948730   -304.226929  -16358.53808    133.520004
   10252           0      2076.948730   -304.226929  -16714.63671    135.194504
   10253           0      2076.948730   -304.226929  -17070.73437    135.144806
   10254           0      2076.948730   -304.226929  -17426.83203    136.008286
   10255           0      2076.948730   -304.226929  -17782.92968    135.789963
   10256           0      2076.948730   -304.226929  -18139.02539    135.777634
   10257           0      2076.948730   -304.226929  -18495.12304    135.221115
   10258           0      2076.948730   -304.226929  -18851.22070    134.593658
   10259           0      2076.948730   -304.226929  -19207.31835    133.757401
   10260           0      2076.948730   -304.226929  -19563.41796    132.786850
   10261           0      2076.948730   -304.226929  -19919.51562    131.800323
   10262           0      2076.948730   -304.226929  -20275.61132    130.703903
   10263           0      2076.948730   -304.226929  -20631.70898    129.694016
   10264           0      2076.948730   -304.226929  -20987.80664    128.618546
   10265           0      2076.948730   -304.226898  -21343.90429    127.675003
   10266           0      2076.948730   -304.226898  -21700.00195    126.694771
   10267           0      2076.948730   -304.226898  -22056.09765    125.853180
   10268           0      2076.948730   -304.226898  -22412.19531    124.968590
   10269           0      2076.948730   -304.226898  -22768.29296    124.198402
   10270           0      2076.948730   -304.226898  -23124.39062    123.329750
   10271           0      2076.948730   -304.226898  -23480.48828    122.518867
   10272           0      2076.948730   -304.226898  -23836.58789    121.492584
   10273           0      2076.948730   -304.226898  -24192.68359    120.423462
   10274           0      2076.948730   -304.226898  -24548.78125    118.949860
   10275           0      2076.948730   -304.226898  -24904.87890    117.259781
   10276           0      2076.948730   -304.226898  -25260.97656    114.899269
   10277           0      2076.948730   -304.226898  -25617.07421    112.009445
   10278           0      2076.948730   -304.226898  -25973.17187    108.114922
   10279           0      2076.948730   -304.226868  -26329.26953    103.087166
   10280           0      2076.948730   -304.226868  -26685.36914     96.682304
   10281           0      2076.948730   -304.226868  -27041.46484     88.000526
   10282           0      2076.948730   -304.226868  -27397.56054     77.672371
   10283           0      2076.948730   -304.226868  -27753.66015     64.759468
   10284           0      2076.948730   -304.226868  -28109.75781     57.321644
   10285           0      2076.948730   -304.226868  -28465.85351     74.443024
   10286           0      2076.948730   -304.226898  -28821.95117     84.279366
   10287           0      2091.124268   -182.948303  -14578.05175    167.058136
   10288           0      2091.124268   -182.948303  -14934.14843    166.352875
   10289           0      2091.124268   -182.948303  -15290.24609    141.244904
   10290           0      2091.124268   -182.948303  -15646.34277    127.321991
   10291           0      2091.124268   -182.948303  -16002.44043    115.655411
   10292           0      2091.124268   -182.948288  -16358.53808    111.998016
   10293           0      2091.124268   -182.948288  -16714.63671    111.058678
   10294           0      2091.124268   -182.948288  -17070.73242    112.758553
   10295           0      2091.124268   -182.948288  -17426.83007    115.239014
   10296           0      2091.124268   -182.948273  -17782.92773    118.396912
   10297           0      2091.124268   -182.948273  -18139.02539    121.446732
   10298           0      2091.124268   -182.948242  -18495.12500    124.464584
   10299           0      2091.124268   -182.948242  -18851.22070    127.121788
   10300           0      2091.124268   -182.948242  -19207.31835    129.492401
   10301           0      2091.124268   -182.948242  -19563.41601    131.485168
   10302           0      2091.124268   -182.948242  -19919.51367    133.108322
   10303           0      2091.124268   -182.948242  -20275.61132    134.399979
   10304           0      2091.124268   -182.948242  -20631.70898    135.299484
   10305           0      2091.124268   -182.948242  -20987.80664    135.911758
   10306           0      2091.124268   -182.948227  -21343.90429    136.119827
   10307           0      2091.124268   -182.948227  -21700.00195    136.058884
   10308           0      2091.124268   -182.948227  -22056.09960    135.566422
   10309           0      2091.124268   -182.948212  -22412.19726    134.787033
   10310           0      2091.124268   -182.948196  -22768.29492    133.518021
   10311           0      2091.124268   -182.948196  -23124.39062    131.899628
   10312           0      2091.124268   -182.948196  -23480.48828    129.690933
   10313           0      2091.124268   -182.948196  -23836.58984    127.013351
   10314           0      2091.124268   -182.948196  -24192.68554    123.590317
   10315           0      2091.124268   -182.948196  -24548.78125    119.501663
   10316           0      2091.124268   -182.948196  -24904.87890    114.442429
   10317           0      2091.124268   -182.948181  -25260.97656    108.412750
   10318           0      2091.124268   -182.948181  -25617.07421    101.094597
   10319           0      2091.124268   -182.948181  -25973.17187     92.360298
   10320           0      2091.124268   -182.948181  -26329.26953     81.918701
   10321           0      2091.124268   -182.948166  -26685.37109     69.603516
   10322           0      2091.124268   -182.948151  -27041.46484     55.569736
   10323           0      2091.124268   -182.948151  -27397.56054     41.912514
   10324           0      2091.124268   -182.948151  -27753.66406     38.194138
   10325           0      2091.124268   -182.948135  -28109.75781     54.286366
   10326           0      2091.124268   -182.948135  -28465.85156     83.690666
   10327           0      2091.124268   -182.948227  -28821.94921     88.779320
   10328           0      2098.223633    -61.051388  -14578.05078    168.891510
   10329           0      2098.223633    -61.051376  -14934.14843    171.036011
   10330           0      2098.223633    -61.051369  -15290.24609    146.365875
   10331           0      2098.223633    -61.051365  -15646.34277    131.529648
   10332           0      2098.223633    -61.051365  -16002.44140    113.362137
   10333           0      2098.223633    -61.051365  -16358.53808    101.459877
   10334           0      2098.223633    -61.051361  -16714.63671     94.319000
   10335           0      2098.223633    -61.051353  -17070.73242     91.482613
   10336           0      2098.223633    -61.051353  -17426.83007     92.128769
   10337           0      2098.223633    -61.051353  -17782.92773     94.748253
   10338           0      2098.223633    -61.051346  -18139.02539     98.735947
   10339           0      2098.223633    -61.051342  -18495.12500    103.136009
   10340           0      2098.223633    -61.051342  -18851.22265    107.700867
   10341           0      2098.223633    -61.051342  -19207.31835    112.009697
   10342           0      2098.223633    -61.051338  -19563.41796    115.973030
   10343           0      2098.223633    -61.051331  -19919.51367    119.449303
   10344           0      2098.223633    -61.051331  -20275.61132    122.380630
   10345           0      2098.223633    -61.051331  -20631.70898    124.756844
   10346           0      2098.223633    -61.051327  -20987.80664    126.506058
   10347           0      2098.223633    -61.051323  -21343.90429    127.676910
   10348           0      2098.223633    -61.051323  -21700.00195    128.171921
   10349           0      2098.223633    -61.051323  -22056.09765    128.060074
   10350           0      2098.223633    -61.051315  -22412.19726    127.218582
   10351           0      2098.223633    -61.051311  -22768.29296    125.712456
   10352           0      2098.223633    -61.051311  -23124.39062    123.397850
   10353           0      2098.223633    -61.051311  -23480.48828    120.316246
   10354           0      2098.223633    -61.051308  -23836.58789    116.308510
   10355           0      2098.223633    -61.051300  -24192.68359    111.372734
   10356           0      2098.223633    -61.051300  -24548.78125    105.342079
   10357           0      2098.223633    -61.051300  -24904.87890     98.148468
   10358           0      2098.223633    -61.051292  -25260.97656     89.631195
   10359           0      2098.223633    -61.051289  -25617.07617     79.637947
   10360           0      2098.223633    -61.051289  -25973.17382     68.069519
   10361           0      2098.223633    -61.051289  -26329.26953     54.793533
   10362           0      2098.223633    -61.051285  -26685.36914     40.287560
   10363           0      2098.223633    -61.051277  -27041.46484     26.952110
   10364           0      2098.223633    -61.051277  -27397.56054     25.056721
   10365           0      2098.223633    -61.051277  -27753.66210     42.966354
   10366           0      2098.223633    -61.051270  -28109.75781     62.050537
   10367           0      2098.223633    -61.051266  -28465.85351     83.053734
   10368           0      2098.223877    -61.051010  -28821.95117     83.020309
   13825           0      1844.756104   -600.000000  -29166.66601    385.679565
   13826           0      1844.756104   -600.000000  -29500.00000    114.863480
   13827           0      1844.756104   -600.000000  -29833.33203     54.293839
   13828           0      1844.756104   -600.000000  -30166.66601     51.955299
   13829           0      1844.756104   -600.000000  -30500.00000     35.477566
   13830           0      1844.756104   -600.000000  -30833.33593     29.689409
   13831           0      1844.756104   -600.000000  -31166.66601     24.701645
   13832           0      1844.756104   -600.000000  -31500.00000     19.804934
   13833           0      1844.756104   -600.000000  -31833.33203     21.341587
   13834           0      1844.756104   -600.000000  -32166.66796     22.477327
   13835           0      1844.756104   -600.000000  -32500.00195     28.407948
   13836           0      1844.756104   -600.000000  -32833.33593     38.106621
   13837           0      1844.756104   -600.000000  -33166.66796     51.553757
   13838           0      1844.756104   -600.000000  -33500.00000     91.788002
   13839           0      1844.756104   -600.000000  -33833.33593    374.584198
   13840           0      1509.345825   -600.000000  -29166.66601    130.395386
   13841           0      1509.345825   -600.000000  -29500.00000     70.913528
   13842           0      1509.345825   -600.000000  -29833.33203     52.866718
   13843           0      1509.345825   -600.000000  -30166.66601     52.224205
   13844           0      1509.345825   -600.000000  -30500.00000     64.399536
   13845           0      1509.345825   -600.000000  -30833.33593     68.933113
   13846           0      1509.345825   -600.000000  -31166.66796     69.914146
   13847           0      1509.345825   -600.000000  -31500.00000     71.878311
   13848           0      1509.345825   -600.000000  -31833.33203     70.750000
   13849           0      1509.345825   -600.000000  -32166.66796     70.423355
   13850           0      1509.345825   -600.000000  -32500.00195     67.514755
   13851           0      1509.345825   -600.000000  -32833.33593     60.242939
   13852           0      1509.345825   -600.000000  -33166.66796     56.076397
   13853           0      1509.345825   -600.000000  -33500.00000     51.984653
   13854           0      1509.345825   -600.000000  -33833.33593    124.163544
   13855           0      1173.935547   -600.000061  -29166.66601     80.791672
   13856           0      1173.935547   -600.000061  -29500.00000     94.623199
   13857           0      1173.935547   -600.000061  -29833.33203     58.161545
   13858           0      1173.935547   -600.000061  -30166.66601     87.227013
   13859           0      1173.935547   -600.000061  -30500.00000     97.552948
   13860           0      1173.935547   -600.000061  -30833.33593    105.274071
   13861           0      1173.935547   -600.000061  -31166.66796    109.940308
   13862           0      1173.935547   -600.000061  -31500.00000    111.187805
   13863           0      1173.935547   -600.000061  -31833.33203    111.767693
   13864           0      1173.935547   -600.000061  -32166.66796    109.590019
   13865           0      1173.935547   -600.000061  -32500.00195    105.070992
   13866           0      1173.935547   -600.000061  -32833.33593     98.402580
   13867           0      1173.935547   -600.000061  -33166.66796     77.631409
   13868           0      1173.935547   -600.000061  -33500.00000     86.951134
   13869           0      1173.935547   -600.000061  -33833.33593     87.755249
   13870           0       838.525208   -600.000061  -29166.66601    136.610214
   13871           0       838.525208   -600.000061  -29500.00000    119.337158
   13872           0       838.525208   -600.000061  -29833.33203    127.179794
   13873           0       838.525208   -600.000061  -30166.66601    119.673508
   13874           0       838.525208   -600.000061  -30500.00000    130.365295
   13875           0       838.525208   -600.000061  -30833.33593    135.657410
   13876           0       838.525208   -600.000061  -31166.66796    139.561523
   13877           0       838.525208   -600.000061  -31500.00000    141.833023
   13878           0       838.525208   -600.000061  -31833.33203    141.779602
   13879           0       838.525208   -600.000061  -32166.66796    140.303680
   13880           0       838.525208   -600.000061  -32500.00195    137.189301
   13881           0       838.525208   -600.000061  -32833.33593    130.406586
   13882           0       838.525208   -600.000061  -33166.66796    130.630280
   13883           0       838.525208   -600.000061  -33500.00000    130.030731
   13884           0       838.525208   -600.000061  -33833.33593    146.018188
   13885           0       503.114929   -600.000061  -29166.66601    163.904190
   13886           0       503.114929   -600.000061  -29500.00000    162.232849
   13887           0       503.114929   -600.000061  -29833.33203    152.074127
   13888           0       503.114929   -600.000061  -30166.66601    154.702240
   13889           0       503.114929   -600.000061  -30500.00000    153.469223
   13890           0       503.114929   -600.000061  -30833.33593    157.695709
   13891           0       503.114929   -600.000061  -31166.66796    160.358948
   13892           0       503.114929   -600.000061  -31500.00000    161.981003
   13893           0       503.114929   -600.000061  -31833.33203    162.436142
   13894           0       503.114929   -600.000061  -32166.66796    161.540817
   13895           0       503.114929   -600.000061  -32500.00195    159.367996
   13896           0       503.114929   -600.000061  -32833.33593    158.960526
   13897           0       503.114929   -600.000061  -33166.66796    158.937622
   13898           0       503.114929   -600.000061  -33500.00000    166.191635
   13899           0       503.114929   -600.000061  -33833.33593    180.497330
   13900           0       167.704681   -600.000122  -29166.66601    181.073105
   13901           0       167.704681   -600.000122  -29500.00000    175.464859
   13902           0       167.704681   -600.000122  -29833.33203    171.955017
   13903           0       167.704681   -600.000122  -30166.66601    167.547302
   13904           0       167.704681   -600.000122  -30500.00000    167.969391
   13905           0       167.704681   -600.000122  -30833.33593    168.912079
   13906           0       167.704681   -600.000122  -31166.66796    170.937897
   13907           0       167.704681   -600.000122  -31500.00000    172.354614
   13908           0       167.704681   -600.000122  -31833.33203    172.777039
   13909           0       167.704681   -600.000122  -32166.66796    172.328369
   13910           0       167.704681   -600.000122  -32500.00195    171.822647
   13911           0       167.704681   -600.000122  -32833.33593    171.852249
   13912           0       167.704681   -600.000122  -33166.66796    175.050827
   13913           0       167.704681   -600.000122  -33500.00000    182.493088
   13914           0       167.704681   -600.000122  -33833.33593    196.853546
   13915           0      -167.705566   -600.000122  -29166.66601    181.483170
   13916           0      -167.705566   -600.000122  -29500.00000    175.886505
   13917           0      -167.705566   -600.000122  -29833.33203    172.172012
   13918           0      -167.705566   -600.000122  -30166.66601    167.657974
   13919           0      -167.705566   -600.000122  -30500.00000    168.000809
   13920           0      -167.705566   -600.000122  -30833.33593    168.910278
   13921           0      -167.705566   -600.000122  -31166.66796    170.925339
   13922           0      -167.705566   -600.000122  -31500.00000    172.341660
   13923           0      -167.705566   -600.000122  -31833.33203    172.766510
   13924           0      -167.705566   -600.000122  -32166.66796    172.320313
   13925           0      -167.705566   -600.000122  -32500.00195    171.819000
   13926           0      -167.705566   -600.000122  -32833.33593    171.853378
   13927           0      -167.705566   -600.000122  -33166.66796    175.060242
   13928           0      -167.705566   -600.000122  -33500.00000    182.506790
   13929           0      -167.705566   -600.000122  -33833.33593    196.866547
   13930           0      -503.115967   -600.000122  -29166.66601    165.578812
   13931           0      -503.115967   -600.000122  -29500.00000    163.328781
   13932           0      -503.115967   -600.000122  -29833.33203    152.744217
   13933           0      -503.115967   -600.000122  -30166.66601    154.983994
   13934           0      -503.115967   -600.000122  -30500.00000    153.541931
   13935           0      -503.115967   -600.000122  -30833.33593    157.681473
   13936           0      -503.115967   -600.000122  -31166.66796    160.323898
   13937           0      -503.115967   -600.000122  -31500.00000    161.946228
   13938           0      -503.115967   -600.000122  -31833.33203    162.406738
   13939           0      -503.115967   -600.000122  -32166.66796    161.518982
   13940           0      -503.115967   -600.000122  -32500.00195    159.355988
   13941           0      -503.115967   -600.000122  -32833.33593    158.965424
   13942           0      -503.115967   -600.000122  -33166.66796    158.963486
   13943           0      -503.115967   -600.000122  -33500.00000    166.239304
   13944           0      -503.115967   -600.000122  -33833.33593    180.540634
   13945           0      -838.526489   -600.000122  -29166.66601    139.181198
   13946           0      -838.526489   -600.000122  -29500.00000    121.309494
   13947           0      -838.526489   -600.000122  -29833.33203    128.161255
   13948           0      -838.526489   -600.000122  -30166.66601    120.006416
   13949           0      -838.526489   -600.000122  -30500.00000    130.413223
   13950           0      -838.526489   -600.000122  -30833.33593    135.628906
   13951           0      -838.526489   -600.000122  -31166.66796    139.513901
   13952           0      -838.526489   -600.000122  -31500.00000    141.785919
   13953           0      -838.526489   -600.000122  -31833.33203    141.740219
   13954           0      -838.526489   -600.000122  -32166.66796    140.271744
   13955           0      -838.526489   -600.000122  -32500.00195    137.167236
   13956           0      -838.526489   -600.000122  -32833.33593    130.408936
   13957           0      -838.526489   -600.000122  -33166.66796    130.678375
   13958           0      -838.526489   -600.000122  -33500.00000    130.119278
   13959           0      -838.526489   -600.000122  -33833.33593    146.112228
   13960           0     -1173.936768   -600.000122  -29166.66601     85.430244
   13961           0     -1173.936768   -600.000122  -29500.00000     97.356133
   13962           0     -1173.936768   -600.000122  -29833.33203     59.183006
   13963           0     -1173.936768   -600.000122  -30166.66601     87.376434
   13964           0     -1173.936768   -600.000122  -30500.00000     97.586510
   13965           0     -1173.936768   -600.000122  -30833.33593    105.254097
   13966           0     -1173.936768   -600.000122  -31166.66796    109.900803
   13967           0     -1173.936768   -600.000122  -31500.00000    111.147820
   13968           0     -1173.936768   -600.000122  -31833.33203    111.726730
   13969           0     -1173.936768   -600.000122  -32166.66796    109.550781
   13970           0     -1173.936768   -600.000122  -32500.00195    105.037903
   13971           0     -1173.936768   -600.000122  -32833.33593     98.377899
   13972           0     -1173.936768   -600.000122  -33166.66796     77.674614
   13973           0     -1173.936768   -600.000122  -33500.00000     87.139168
   13974           0     -1173.936768   -600.000122  -33833.33593     87.929703
   13975           0     -1509.347168   -600.000183  -29166.66601    133.047928
   13976           0     -1509.347168   -600.000183  -29500.00000     69.551643
   13977           0     -1509.347168   -600.000183  -29833.33203     52.852432
   13978           0     -1509.347168   -600.000183  -30166.66601     52.429680
   13979           0     -1509.347168   -600.000183  -30500.00000     64.532623
   13980           0     -1509.347168   -600.000183  -30833.33593     68.981857
   13981           0     -1509.347168   -600.000183  -31166.66796     69.931648
   13982           0     -1509.347168   -600.000183  -31500.00000     71.861282
   13983           0     -1509.347168   -600.000183  -31833.33203     70.714973
   13984           0     -1509.347168   -600.000183  -32166.66796     70.374893
   13985           0     -1509.347168   -600.000183  -32500.00195     67.449852
   13986           0     -1509.347168   -600.000183  -32833.33593     60.176712
   13987           0     -1509.347168   -600.000183  -33166.66796     55.987778
   13988           0     -1509.347168   -600.000183  -33500.00000     51.862183
   13989           0     -1509.347168   -600.000183  -33833.33593    124.263176
   13990           0     -1844.756836   -600.000244  -29166.66601    374.476837
   13991           0     -1844.756836   -600.000244  -29500.00000    115.030319
   13992           0     -1844.756836   -600.000244  -29833.33203     54.539658
   13993           0     -1844.756836   -600.000244  -30166.66601     52.384415
   13994           0     -1844.756836   -600.000244  -30500.00000     35.830982
   13995           0     -1844.756836   -600.000244  -30833.33593     29.990767
   13996           0     -1844.756836   -600.000244  -31166.66796     24.876020
   13997           0     -1844.756836   -600.000244  -31500.00000     19.878071
   13998           0     -1844.756836   -600.000244  -31833.33203     21.304356
   13999           0     -1844.756836   -600.000244  -32166.66796     22.341248
   14000           0     -1844.756836   -600.000244  -32500.00195     28.254093
   14001           0     -1844.756836   -600.000244  -32833.33593     37.927032
   14002           0     -1844.756836   -600.000244  -33166.66796     51.385586
   14003           0     -1844.756836   -600.000244  -33500.00000     91.627434
   14004           0     -1844.756836   -600.000244  -33833.33593    373.822937
   14005           0      1844.756104   -600.000000  -14578.05078    381.286438
   14006           0      1844.756104   -600.000000  -14934.14843    129.210678
   14007           0      1844.756104   -600.000000  -15290.24609     67.251396
   14008           0      1844.756104   -600.000000  -15646.34277     68.266182
   14009           0      1844.756104   -600.000000  -16002.44043     53.397701
   14010           0      1844.756104   -600.000000  -16358.53808     50.380070
   14011           0      1844.756104   -600.000000  -16714.63671     45.593502
   14012           0      1844.756104   -600.000000  -17070.73437     42.363281
   14013           0      1844.756104   -600.000000  -17426.83203     40.264866
   14014           0      1844.756104   -600.000000  -17782.92968     38.066059
   14015           0      1844.756104   -600.000000  -18139.02539     37.168633
   14016           0      1844.756104   -600.000000  -18495.12109     36.060535
   14017           0      1844.756104   -600.000000  -18851.22070     35.836811
   14018           0      1844.756104   -600.000000  -19207.31835     35.458382
   14019           0      1844.756104   -600.000000  -19563.41796     35.556610
   14020           0      1844.756104   -600.000000  -19919.51562     35.536900
   14021           0      1844.756104   -600.000000  -20275.61132     35.735786
   14022           0      1844.756104   -600.000000  -20631.70898     35.837650
   14023           0      1844.756104   -600.000000  -20987.80664     36.026852
   14024           0      1844.756104   -600.000000  -21343.90429     36.132835
   14025           0      1844.756104   -600.000000  -21700.00000     36.275169
   14026           0      1844.756104   -600.000000  -22056.09765     36.343937
   14027           0      1844.756104   -600.000000  -22412.19531     36.451542
   14028           0      1844.756104   -600.000000  -22768.29296     36.492973
   14029           0      1844.756104   -600.000000  -23124.39062     36.626480
   14030           0      1844.756104   -600.000000  -23480.48828     36.702240
   14031           0      1844.756104   -600.000000  -23836.58789     36.991669
   14032           0      1844.756104   -600.000000  -24192.68359     37.239094
   14033           0      1844.756104   -600.000000  -24548.78125     37.914124
   14034           0      1844.756104   -600.000000  -24904.87890     38.583286
   14035           0      1844.756104   -600.000000  -25260.97460     39.961834
   14036           0      1844.756104   -600.000000  -25617.07031     41.442436
   14037           0      1844.756104   -600.000000  -25973.16992     43.765865
   14038           0      1844.756104   -600.000000  -26329.26953     46.659672
   14039           0      1844.756104   -600.000000  -26685.36914     49.699234
   14040           0      1844.756104   -600.000000  -27041.46484     55.563263
   14041           0      1844.756104   -600.000000  -27397.56054     57.991096
   14042           0      1844.756104   -600.000000  -27753.66015     73.685020
   14043           0      1844.756104   -600.000000  -28109.75781     72.514793
   14044           0      1844.756104   -600.000000  -28465.85351    131.500107
   14045           0      1844.756104   -600.000000  -28821.95117    385.069397
   14046           0      1509.345825   -600.000000  -14578.05078    122.849472
   14047           0      1509.345825   -600.000000  -14934.14843     68.240326
   14048           0      1509.345825   -600.000000  -15290.24609     69.828125
   14049           0      1509.345825   -600.000000  -15646.34277     65.457748
   14050           0      1509.345825   -600.000000  -16002.44043     80.112000
   14051           0      1509.345825   -600.000000  -16358.53808     83.807045
   14052           0      1509.345825   -600.000000  -16714.63671     87.172989
   14053           0      1509.345825   -600.000000  -17070.73242     89.979042
   14054           0      1509.345825   -600.000000  -17426.83007     91.534058
   14055           0      1509.345825   -600.000000  -17782.92773     93.554459
   14056           0      1509.345825   -600.000000  -18139.02539     94.754326
   14057           0      1509.345825   -600.000000  -18495.12109     96.282677
   14058           0      1509.345825   -600.000000  -18851.21875     97.300163
   14059           0      1509.345825   -600.000000  -19207.31835     98.446823
   14060           0      1509.345825   -600.000000  -19563.41601     99.260376
   14061           0      1509.345825   -600.000000  -19919.51171    100.083282
   14062           0      1509.345825   -600.000000  -20275.61132    100.674950
   14063           0      1509.345825   -600.000000  -20631.70898    101.219429
   14064           0      1509.345825   -600.000000  -20987.80664    101.589485
   14065           0      1509.345825   -600.000000  -21343.90429    101.890251
   14066           0      1509.345825   -600.000000  -21700.00000    102.043243
   14067           0      1509.345825   -600.000000  -22056.09570    102.121979
   14068           0      1509.345825   -600.000000  -22412.19531    102.055939
   14069           0      1509.345825   -600.000000  -22768.29492    101.922150
   14070           0      1509.345825   -600.000000  -23124.39062    101.623642
   14071           0      1509.345825   -600.000000  -23480.48828    101.280167
   14072           0      1509.345703   -600.000000  -23836.58984    100.724579
   14073           0      1509.345703   -600.000000  -24192.68554    100.178581
   14074           0      1509.345703   -600.000000  -24548.78125     99.334442
   14075           0      1509.345703   -600.000000  -24904.87890     98.610115
   14076           0      1509.345703   -600.000000  -25260.97265     97.441231
   14077           0      1509.345703   -600.000000  -25617.06835     96.560722
   14078           0      1509.345703   -600.000000  -25973.16796     94.995689
   14079           0      1509.345703   -600.000000  -26329.26953     93.768127
   14080           0      1509.345703   -600.000000  -26685.37109     91.594582
   14081           0      1509.345703   -600.000000  -27041.46484     88.510529
   14082           0      1509.345703   -600.000000  -27397.56054     85.808731
   14083           0      1509.345703   -600.000000  -27753.66210     71.398552
   14084           0      1509.345703   -600.000000  -28109.75781     77.260277
   14085           0      1509.345703   -600.000000  -28465.85156     61.794003
   14086           0      1509.345825   -600.000000  -28821.94921    113.444252
   14087           0      1173.935547   -600.000061  -14578.05078     84.527031
   14088           0      1173.935547   -600.000061  -14934.14843     92.313728
   14089           0      1173.935547   -600.000061  -15290.24609     63.704655
   14090           0      1173.935547   -600.000061  -15646.34277     99.852028
   14091           0      1173.935547   -600.000061  -16002.44043    110.965134
   14092           0      1173.935547   -600.000061  -16358.53808    122.116631
   14093           0      1173.935547   -600.000061  -16714.63671    128.933823
   14094           0      1173.935547   -600.000061  -17070.73242    133.918213
   14095           0      1173.935547   -600.000061  -17426.83007    138.267761
   14096           0      1173.935547   -600.000061  -17782.92773    141.383698
   14097           0      1173.935547   -600.000061  -18139.02539    144.375580
   14098           0      1173.935425   -600.000061  -18495.12109    146.581787
   14099           0      1173.935425   -600.000061  -18851.21875    148.674057
   14100           0      1173.935425   -600.000061  -19207.31835    150.248383
   14101           0      1173.935425   -600.000061  -19563.41601    151.682358
   14102           0      1173.935425   -600.000061  -19919.51171    152.761154
   14103           0      1173.935425   -600.000061  -20275.61132    153.693069
   14104           0      1173.935425   -600.000061  -20631.70898    154.367035
   14105           0      1173.935425   -600.000061  -20987.80664    154.898941
   14106           0      1173.935425   -600.000061  -21343.90429    155.225067
   14107           0      1173.935425   -600.000061  -21700.00000    155.414429
   14108           0      1173.935425   -600.000061  -22056.09570    155.415482
   14109           0      1173.935425   -600.000061  -22412.19531    155.280014
   14110           0      1173.935425   -600.000061  -22768.29492    154.942673
   14111           0      1173.935425   -600.000061  -23124.39062    154.463882
   14112           0      1173.935425   -600.000061  -23480.48828    153.736191
   14113           0      1173.935425   -600.000061  -23836.58984    152.861649
   14114           0      1173.935425   -600.000061  -24192.68554    151.649155
   14115           0      1173.935425   -600.000061  -24548.78125    150.293732
   14116           0      1173.935425   -600.000061  -24904.87890    148.452454
   14117           0      1173.935425   -600.000061  -25260.97265    146.486298
   14118           0      1173.935425   -600.000061  -25617.06835    143.796097
   14119           0      1173.935425   -600.000061  -25973.16796    140.944687
   14120           0      1173.935425   -600.000061  -26329.26953    136.986786
   14121           0      1173.935425   -600.000061  -26685.37109    132.266891
   14122           0      1173.935425   -600.000061  -27041.46484    126.021873
   14123           0      1173.935425   -600.000061  -27397.56054    114.952782
   14124           0      1173.935425   -600.000061  -27753.66210    104.885063
   14125           0      1173.935425   -600.000061  -28109.75781     66.039001
   14126           0      1173.935425   -600.000061  -28465.85156     89.641891
   14127           0      1173.935547   -600.000061  -28821.94921     82.757431
   14128           0       838.525208   -600.000061  -14578.05078    141.952484
   14129           0       838.525208   -600.000061  -14934.14843    126.080383
   14130           0       838.525208   -600.000061  -15290.24609    133.244461
   14131           0       838.525208   -600.000061  -15646.34277    130.015717
   14132           0       838.525208   -600.000061  -16002.44043    145.467575
   14133           0       838.525208   -600.000061  -16358.53808    153.723129
   14134           0       838.525208   -600.000061  -16714.63671    161.987869
   14135           0       838.525146   -600.000061  -17070.73242    168.354294
   14136           0       838.525146   -600.000061  -17426.83007    173.518723
   14137           0       838.525146   -600.000061  -17782.92773    178.053452
   14138           0       838.525146   -600.000061  -18139.02539    181.606491
   14139           0       838.525146   -600.000061  -18495.12109    184.777939
   14140           0       838.525146   -600.000061  -18851.21875    187.249557
   14141           0       838.525146   -600.000061  -19207.31835    189.413818
   14142           0       838.525146   -600.000061  -19563.41601    191.088470
   14143           0       838.525146   -600.000061  -19919.51171    192.505386
   14144           0       838.525146   -600.000061  -20275.61132    193.572021
   14145           0       838.525146   -600.000061  -20631.70898    194.420532
   14146           0       838.525146   -600.000061  -20987.80664    195.001999
   14147           0       838.525146   -600.000061  -21343.90429    195.391144
   14148           0       838.525085   -600.000061  -21700.00000    195.552460
   14149           0       838.525085   -600.000061  -22056.09570    195.530258
   14150           0       838.525085   -600.000061  -22412.19531    195.281784
   14151           0       838.525085   -600.000061  -22768.29492    194.840500
   14152           0       838.525085   -600.000061  -23124.39062    194.137573
   14153           0       838.525085   -600.000061  -23480.48828    193.214951
   14154           0       838.525085   -600.000061  -23836.58984    191.953400
   14155           0       838.525085   -600.000061  -24192.68554    190.429825
   14156           0       838.525085   -600.000061  -24548.78125    188.438889
   14157           0       838.525085   -600.000061  -24904.87890    186.129486
   14158           0       838.525085   -600.000061  -25260.97265    183.162964
   14159           0       838.525085   -600.000061  -25617.06835    179.785797
   14160           0       838.525085   -600.000061  -25973.16796    175.506821
   14161           0       838.525085   -600.000061  -26329.26953    170.515625
   14162           0       838.525024   -600.000061  -26685.37109    164.458008
   14163           0       838.524963   -600.000061  -27041.46484    156.235260
   14164           0       838.524963   -600.000061  -27397.56054    148.160263
   14165           0       838.524963   -600.000061  -27753.66210    131.870193
   14166           0       838.524963   -600.000061  -28109.75781    132.855835
   14167           0       838.524963   -600.000061  -28465.85156    123.579071
   14168           0       838.525085   -600.000061  -28821.94921    136.704498
   14169           0       503.114929   -600.000061  -14578.05078    171.622314
   14170           0       503.114929   -600.000061  -14934.14843    170.181198
   14171           0       503.114929   -600.000061  -15290.24609    162.109848
   14172           0       503.114929   -600.000061  -15646.34277    166.778458
   14173           0       503.114929   -600.000061  -16002.44043    169.241913
   14174           0       503.114929   -600.000061  -16358.53808    178.043274
   14175           0       503.114929   -600.000061  -16714.63671    184.955963
   14176           0       503.114868   -600.000061  -17070.73242    191.737457
   14177           0       503.114868   -600.000061  -17426.83007    197.603104
   14178           0       503.114868   -600.000061  -17782.92773    202.529541
   14179           0       503.114868   -600.000061  -18139.02539    206.818649
   14180           0       503.114868   -600.000061  -18495.12109    210.285782
   14181           0       503.114868   -600.000061  -18851.21875    213.257355
   14182           0       503.114868   -600.000061  -19207.31835    215.619522
   14183           0       503.114868   -600.000061  -19563.41601    217.593979
   14184           0       503.114868   -600.000061  -19919.51171    219.128464
   14185           0       503.114868   -600.000061  -20275.61132    220.357681
   14186           0       503.114868   -600.000061  -20631.70898    221.259445
   14187           0       503.114868   -600.000061  -20987.80664    221.911057
   14188           0       503.114868   -600.000061  -21343.90429    222.298126
   14189           0       503.114807   -600.000061  -21700.00000    222.462341
   14190           0       503.114746   -600.000061  -22056.09570    222.382858
   14191           0       503.114746   -600.000061  -22412.19531    222.080093
   14192           0       503.114746   -600.000061  -22768.29492    221.515518
   14193           0       503.114746   -600.000061  -23124.39062    220.699249
   14194           0       503.114746   -600.000061  -23480.48828    219.562317
   14195           0       503.114746   -600.000061  -23836.58984    218.116394
   14196           0       503.114746   -600.000061  -24192.68554    216.244553
   14197           0       503.114746   -600.000061  -24548.78125    213.976379
   14198           0       503.114746   -600.000061  -24904.87890    211.126236
   14199           0       503.114746   -600.000061  -25260.97265    207.759964
   14200           0       503.114746   -600.000061  -25617.06835    203.621338
   14201           0       503.114746   -600.000061  -25973.16796    198.793335
   14202           0       503.114746   -600.000061  -26329.26953    193.095825
   14203           0       503.114685   -600.000061  -26685.37109    186.339859
   14204           0       503.114685   -600.000061  -27041.46484    179.432785
   14205           0       503.114685   -600.000061  -27397.56054    170.243164
   14206           0       503.114685   -600.000061  -27753.66210    166.594406
   14207           0       503.114685   -600.000061  -28109.75781    160.423904
   14208           0       503.114685   -600.000061  -28465.85156    165.796478
   14209           0       503.114807   -600.000061  -28821.94921    165.093277
   14210           0       167.704681   -600.000122  -14578.05078    189.849579
   14211           0       167.704681   -600.000122  -14934.14843    185.533844
   14212           0       167.704681   -600.000122  -15290.24609    183.358246
   14213           0       167.704681   -600.000122  -15646.34277    181.506866
   14214           0       167.704681   -600.000122  -16002.44043    185.373138
   14215           0       167.704681   -600.000122  -16358.53808    190.483643
   14216           0       167.704681   -600.000122  -16714.63671    197.391220
   14217           0       167.704681   -600.000122  -17070.73242    203.973328
   14218           0       167.704681   -600.000122  -17426.83007    209.969589
   14219           0       167.704681   -600.000122  -17782.92773    215.240738
   14220           0       167.704681   -600.000122  -18139.02539    219.673172
   14221           0       167.704681   -600.000122  -18495.12109    223.439102
   14222           0       167.704681   -600.000122  -18851.21875    226.516541
   14223           0       167.704681   -600.000122  -19207.31835    229.067978
   14224           0       167.704681   -600.000122  -19563.41601    231.106842
   14225           0       167.704681   -600.000122  -19919.51171    232.744995
   14226           0       167.704681   -600.000122  -20275.61132    234.003021
   14227           0       167.704681   -600.000122  -20631.70898    234.949783
   14228           0       167.704681   -600.000122  -20987.80664    235.600037
   14229           0       167.704681   -600.000122  -21343.90429    235.991074
   14230           0       167.704620   -600.000122  -21700.00000    236.125793
   14231           0       167.704559   -600.000122  -22056.09570    236.017929
   14232           0       167.704559   -600.000122  -22412.19531    235.654800
   14233           0       167.704559   -600.000122  -22768.29492    235.031174
   14234           0       167.704559   -600.000122  -23124.39062    234.114868
   14235           0       167.704559   -600.000122  -23480.48828    232.884232
   14236           0       167.704559   -600.000122  -23836.58984    231.281952
   14237           0       167.704559   -600.000122  -24192.68554    229.272278
   14238           0       167.704559   -600.000122  -24548.78125    226.767166
   14239           0       167.704559   -600.000122  -24904.87890    223.720978
   14240           0       167.704559   -600.000122  -25260.97265    220.018066
   14241           0       167.704559   -600.000122  -25617.06835    215.612427
   14242           0       167.704559   -600.000122  -25973.16796    210.416397
   14243           0       167.704559   -600.000122  -26329.26953    204.402740
   14244           0       167.704559   -600.000122  -26685.37109    197.821625
   14245           0       167.704559   -600.000122  -27041.46484    190.677826
   14246           0       167.704559   -600.000122  -27397.56054    185.002090
   14247           0       167.704559   -600.000122  -27753.66210    180.178238
   14248           0       167.704559   -600.000122  -28109.75781    180.173218
   14249           0       167.704559   -600.000122  -28465.85156    180.541367
   14250           0       167.704620   -600.000122  -28821.94921    182.676910
   14251           0      -167.705566   -600.000122  -14578.05078    190.996552
   14252           0      -167.705566   -600.000122  -14934.14843    186.803329
   14253           0      -167.705566   -600.000122  -15290.24609    184.449722
   14254           0      -167.705566   -600.000122  -15646.34277    182.658737
   14255           0      -167.705566   -600.000122  -16002.44043    186.432846
   14256           0      -167.705566   -600.000122  -16358.53808    191.437500
   14257           0      -167.705566   -600.000122  -16714.63671    198.321960
   14258           0      -167.705566   -600.000122  -17070.73242    204.791077
   14259           0      -167.705566   -600.000122  -17426.83007    210.776443
   14260           0      -167.705566   -600.000122  -17782.92773    215.979721
   14261           0      -167.705505   -600.000122  -18139.02539    220.400635
   14262           0      -167.705444   -600.000122  -18495.12109    224.123535
   14263           0      -167.705444   -600.000122  -18851.21875    227.184921
   14264           0      -167.705444   -600.000122  -19207.31835    229.703354
   14265           0      -167.705444   -600.000122  -19563.41601    231.721481
   14266           0      -167.705444   -600.000122  -19919.51171    233.329956
   14267           0      -167.705444   -600.000122  -20275.61132    234.563675
   14268           0      -167.705444   -600.000122  -20631.70898    235.481384
   14269           0      -167.705444   -600.000122  -20987.80664    236.104599
   14270           0      -167.705444   -600.000122  -21343.90429    236.466217
   14271           0      -167.705475   -600.000122  -21700.00000    236.571487
   14272           0      -167.705505   -600.000122  -22056.09570    236.433289
   14273           0      -167.705505   -600.000122  -22412.19531    236.038132
   14274           0      -167.705505   -600.000122  -22768.29492    235.383087
   14275           0      -167.705505   -600.000122  -23124.39062    234.431335
   14276           0      -167.705505   -600.000122  -23480.48828    233.168091
   14277           0      -167.705505   -600.000122  -23836.58984    231.525452
   14278           0      -167.705505   -600.000122  -24192.68554    229.482620
   14279           0      -167.705505   -600.000122  -24548.78125    226.929565
   14280           0      -167.705505   -600.000122  -24904.87890    223.851593
   14281           0      -167.705444   -600.000122  -25260.97460    220.088959
   14282           0      -167.705383   -600.000122  -25617.07031    215.658615
   14283           0      -167.705383   -600.000122  -25973.16796    210.387177
   14284           0      -167.705383   -600.000122  -26329.26953    204.370148
   14285           0      -167.705383   -600.000122  -26685.37109    197.712799
   14286           0      -167.705383   -600.000122  -27041.46484    190.620590
   14287           0      -167.705383   -600.000122  -27397.56054    185.002426
   14288           0      -167.705383   -600.000122  -27753.66210    180.279892
   14289           0      -167.705383   -600.000122  -28109.75781    180.601807
   14290           0      -167.705383   -600.000122  -28465.85156    180.915985
   14291           0      -167.705475   -600.000122  -28821.94921    183.351776
   14292           0      -503.115967   -600.000122  -14578.05078    175.708466
   14293           0      -503.115967   -600.000122  -14934.14843    174.003006
   14294           0      -503.115967   -600.000122  -15290.24609    165.732056
   14295           0      -503.115967   -600.000122  -15646.34277    170.284012
   14296           0      -503.115967   -600.000122  -16002.44043    172.278275
   14297           0      -503.115967   -600.000122  -16358.53808    181.039703
   14298           0      -503.116028   -600.000122  -16714.63671    187.622437
   14299           0      -503.116089   -600.000122  -17070.73242    194.284637
   14300           0      -503.116089   -600.000122  -17426.83007    199.968872
   14301           0      -503.116089   -600.000122  -17782.92773    204.804993
   14302           0      -503.116028   -600.000122  -18139.02539    208.982483
   14303           0      -503.115967   -600.000122  -18495.12109    212.375000
   14304           0      -503.115967   -600.000122  -18851.21875    215.259216
   14305           0      -503.115967   -600.000122  -19207.31835    217.548096
   14306           0      -503.115967   -600.000122  -19563.41601    219.440689
   14307           0      -503.115967   -600.000122  -19919.51171    220.898041
   14308           0      -503.115967   -600.000122  -20275.61132    222.044495
   14309           0      -503.115967   -600.000122  -20631.70898    222.864227
   14310           0      -503.115967   -600.000122  -20987.80664    223.430161
   14311           0      -503.115967   -600.000122  -21343.90429    223.730301
   14312           0      -503.116028   -600.000122  -21700.00000    223.805084
   14313           0      -503.116089   -600.000122  -22056.09570    223.633255
   14314           0      -503.116089   -600.000122  -22412.19531    223.236572
   14315           0      -503.116089   -600.000122  -22768.29492    222.572876
   14316           0      -503.116089   -600.000122  -23124.39062    221.657181
   14317           0      -503.116089   -600.000122  -23480.48828    220.412033
   14318           0      -503.116089   -600.000122  -23836.58984    218.860092
   14319           0      -503.116089   -600.000122  -24192.68554    216.867294
   14320           0      -503.116089   -600.000122  -24548.78125    214.486343
   14321           0      -503.116089   -600.000122  -24904.87890    211.497528
   14322           0      -503.116028   -600.000122  -25260.97460    208.014343
   14323           0      -503.115967   -600.000122  -25617.07031    203.714676
   14324           0      -503.115967   -600.000122  -25973.16796    198.778687
   14325           0      -503.115967   -600.000122  -26329.26953    192.906616
   14326           0      -503.116028   -600.000122  -26685.37109    186.105896
   14327           0      -503.116089   -600.000122  -27041.46484    179.110001
   14328           0      -503.116089   -600.000122  -27397.56054    170.142685
   14329           0      -503.116089   -600.000122  -27753.66210    166.957367
   14330           0      -503.116089   -600.000122  -28109.75781    161.258224
   14331           0      -503.116089   -600.000122  -28465.85156    167.491272
   14332           0      -503.116028   -600.000122  -28821.94921    166.663330
   14333           0      -838.526489   -600.000122  -14578.05078    150.526123
   14334           0      -838.526489   -600.000122  -14934.14843    133.823792
   14335           0      -838.526489   -600.000122  -15290.24609    140.422913
   14336           0      -838.526489   -600.000122  -15646.34277    135.044708
   14337           0      -838.526489   -600.000122  -16002.44043    150.958206
   14338           0      -838.526489   -600.000122  -16358.53808    158.458481
   14339           0      -838.526489   -600.000122  -16714.63671    166.544952
   14340           0      -838.526611   -600.000122  -17070.73242    172.573608
   14341           0      -838.526611   -600.000122  -17426.83007    177.542175
   14342           0      -838.526611   -600.000122  -17782.92773    181.882111
   14343           0      -838.526611   -600.000122  -18139.02539    185.281403
   14344           0      -838.526611   -600.000122  -18495.12109    188.306290
   14345           0      -838.526611   -600.000122  -18851.21875    190.641815
   14346           0      -838.526611   -600.000122  -19207.31835    192.670578
   14347           0      -838.526611   -600.000122  -19563.41601    194.210571
   14348           0      -838.526611   -600.000122  -19919.51171    195.490448
   14349           0      -838.526611   -600.000122  -20275.61132    196.418030
   14350           0      -838.526611   -600.000122  -20631.70898    197.124557
   14351           0      -838.526611   -600.000122  -20987.80664    197.560944
   14352           0      -838.526611   -600.000122  -21343.90429    197.802322
   14353           0      -838.526611   -600.000122  -21700.00000    197.811569
   14354           0      -838.526733   -600.000122  -22056.09570    197.634933
   14355           0      -838.526733   -600.000122  -22412.19531    197.225693
   14356           0      -838.526733   -600.000122  -22768.29492    196.621872
   14357           0      -838.526733   -600.000122  -23124.39062    195.746429
   14358           0      -838.526733   -600.000122  -23480.48828    194.651031
   14359           0      -838.526733   -600.000122  -23836.58984    193.200760
   14360           0      -838.526733   -600.000122  -24192.68554    191.492325
   14361           0      -838.526733   -600.000122  -24548.78125    189.290192
   14362           0      -838.526733   -600.000122  -24904.87890    186.783752
   14363           0      -838.526733   -600.000122  -25260.97460    183.576187
   14364           0      -838.526733   -600.000122  -25617.07031    179.996399
   14365           0      -838.526733   -600.000122  -25973.16796    175.442001
   14366           0      -838.526733   -600.000122  -26329.26953    170.273911
   14367           0      -838.526733   -600.000122  -26685.37109    163.930450
   14368           0      -838.526855   -600.000122  -27041.46484    155.691208
   14369           0      -838.526855   -600.000122  -27397.56054    147.507706
   14370           0      -838.526855   -600.000122  -27753.66210    131.937775
   14371           0      -838.526855   -600.000122  -28109.75781    134.325653
   14372           0      -838.526855   -600.000122  -28465.85156    125.845734
   14373           0      -838.526611   -600.000122  -28821.94921    140.256424
   14374           0     -1173.936768   -600.000122  -14578.05078    105.024612
   14375           0     -1173.936768   -600.000122  -14934.14843    108.410080
   14376           0     -1173.936768   -600.000122  -15290.24609     69.508095
   14377           0     -1173.936768   -600.000122  -15646.34277    108.333275
   14378           0     -1173.936768   -600.000122  -16002.44043    117.946930
   14379           0     -1173.936768   -600.000122  -16358.53808    128.959091
   14380           0     -1173.936768   -600.000122  -16714.63671    135.326385
   14381           0     -1173.936768   -600.000122  -17070.73242    139.991760
   14382           0     -1173.936768   -600.000122  -17426.83007    144.067963
   14383           0     -1173.936768   -600.000122  -17782.92773    146.917313
   14384           0     -1173.936768   -600.000122  -18139.02539    149.697037
   14385           0     -1173.936768   -600.000122  -18495.12109    151.679337
   14386           0     -1173.936768   -600.000122  -18851.21875    153.575195
   14387           0     -1173.936768   -600.000122  -19207.31835    154.940826
   14388           0     -1173.936768   -600.000122  -19563.41601    156.176758
   14389           0     -1173.936768   -600.000122  -19919.51171    157.048203
   14390           0     -1173.936768   -600.000122  -20275.61132    157.775833
   14391           0     -1173.936768   -600.000122  -20631.70898    158.238632
   14392           0     -1173.936768   -600.000122  -20987.80664    158.559448
   14393           0     -1173.936768   -600.000122  -21343.90429    158.668350
   14394           0     -1173.936768   -600.000122  -21700.00000    158.639297
   14395           0     -1173.936768   -600.000122  -22056.09570    158.414703
   14396           0     -1173.936768   -600.000122  -22412.19531    158.051987
   14397           0     -1173.936768   -600.000122  -22768.29492    157.476929
   14398           0     -1173.936768   -600.000122  -23124.39062    156.759308
   14399           0     -1173.936768   -600.000122  -23480.48828    155.776398
   14400           0     -1173.936768   -600.000122  -23836.58984    154.648224
   14401           0     -1173.936768   -600.000122  -24192.68554    153.155869
   14402           0     -1173.936768   -600.000122  -24548.78125    151.529572
   14403           0     -1173.936768   -600.000122  -24904.87890    149.374802
   14404           0     -1173.936890   -600.000122  -25260.97460    147.122025
   14405           0     -1173.937012   -600.000122  -25617.07031    144.074570
   14406           0     -1173.937012   -600.000122  -25973.16796    140.934250
   14407           0     -1173.937012   -600.000122  -26329.26953    136.565338
   14408           0     -1173.937012   -600.000122  -26685.37109    131.605087
   14409           0     -1173.937012   -600.000122  -27041.46484    124.885765
   14410           0     -1173.937012   -600.000122  -27397.56054    113.823387
   14411           0     -1173.937012   -600.000122  -27753.66210    103.281891
   14412           0     -1173.937012   -600.000122  -28109.75781     66.293236
   14413           0     -1173.937012   -600.000122  -28465.85156     94.315811
   14414           0     -1173.936768   -600.000122  -28821.94921     86.551987
   14415           0     -1509.347168   -600.000183  -14578.05078    148.244156
   14416           0     -1509.347168   -600.000183  -14934.14843     62.789852
   14417           0     -1509.347168   -600.000183  -15290.24609     76.966301
   14418           0     -1509.347046   -600.000183  -15646.34277     74.597450
   14419           0     -1509.347046   -600.000183  -16002.44043     89.003792
   14420           0     -1509.347046   -600.000183  -16358.53808     92.741447
   14421           0     -1509.347046   -600.000183  -16714.63671     95.811836
   14422           0     -1509.346924   -600.000183  -17070.73242     98.304192
   14423           0     -1509.346924   -600.000183  -17426.83007     99.527931
   14424           0     -1509.346924   -600.000183  -17782.92773    101.233559
   14425           0     -1509.346924   -600.000183  -18139.02539    102.110909
   14426           0     -1509.346924   -600.000183  -18495.12109    103.341965
   14427           0     -1509.346924   -600.000183  -18851.21875    104.047829
   14428           0     -1509.346924   -600.000183  -19207.31835    104.900368
   14429           0     -1509.346924   -600.000183  -19563.41601    105.407227
   14430           0     -1509.346924   -600.000183  -19919.51171    105.933357
   14431           0     -1509.346924   -600.000183  -20275.61132    106.219673
   14432           0     -1509.346924   -600.000183  -20631.70898    106.464012
   14433           0     -1509.346680   -600.000183  -20987.80664    106.527672
   14434           0     -1509.346680   -600.000183  -21343.90429    106.524551
   14435           0     -1509.346680   -600.000183  -21700.00000    106.367157
   14436           0     -1509.346680   -600.000183  -22056.09570    106.136398
   14437           0     -1509.346558   -600.000183  -22412.19531    105.751266
   14438           0     -1509.346436   -600.000183  -22768.29492    105.298683
   14439           0     -1509.346436   -600.000183  -23124.39062    104.665573
   14440           0     -1509.346436   -600.000183  -23480.48828    103.989014
   14441           0     -1509.346436   -600.000183  -23836.58984    103.074211
   14442           0     -1509.346436   -600.000183  -24192.68554    102.175987
   14443           0     -1509.346436   -600.000183  -24548.78125    100.936974
   14444           0     -1509.346436   -600.000183  -24904.87890     99.839920
   14445           0     -1509.346436   -600.000183  -25260.97460     98.228172
   14446           0     -1509.346436   -600.000183  -25617.07031     96.963425
   14447           0     -1509.346436   -600.000183  -25973.16796     94.891685
   14448           0     -1509.346436   -600.000183  -26329.26953     93.299965
   14449           0     -1509.346436   -600.000183  -26685.37109     90.512383
   14450           0     -1509.346313   -600.000183  -27041.46484     87.151283
   14451           0     -1509.346313   -600.000183  -27397.56054     83.542488
   14452           0     -1509.346313   -600.000183  -27753.66210     68.962425
   14453           0     -1509.346313   -600.000183  -28109.75781     73.070900
   14454           0     -1509.346313   -600.000183  -28465.85156     58.573635
   14455           0     -1509.346802   -600.000183  -28821.94921    119.262207
   14456           0     -1844.756836   -600.000244  -14578.05078    402.336151
   14457           0     -1844.756836   -600.000244  -14934.14843    126.182335
   14458           0     -1844.756836   -600.000244  -15290.24609     74.190613
   14459           0     -1844.756592   -600.000244  -15646.34277     76.451828
   14460           0     -1844.756592   -600.000244  -16002.44140     61.976276
   14461           0     -1844.756592   -600.000244  -16358.53808     61.454708
   14462           0     -1844.756592   -600.000244  -16714.63671     55.664810
   14463           0     -1844.756592   -600.000244  -17070.73242     53.853233
   14464           0     -1844.756592   -600.000244  -17426.83007     50.981838
   14465           0     -1844.756592   -600.000244  -17782.92773     49.311893
   14466           0     -1844.756592   -600.000244  -18139.02539     47.828991
   14467           0     -1844.756348   -600.000244  -18495.12109     46.692417
   14468           0     -1844.756348   -600.000244  -18851.21875     45.922474
   14469           0     -1844.756348   -600.000244  -19207.31835     45.216858
   14470           0     -1844.756348   -600.000244  -19563.41601     44.768749
   14471           0     -1844.756348   -600.000244  -19919.51367     44.292099
   14472           0     -1844.756348   -600.000244  -20275.61132     43.949989
   14473           0     -1844.756348   -600.000244  -20631.70898     43.552158
   14474           0     -1844.756348   -600.000244  -20987.80664     43.211674
   14475           0     -1844.756104   -600.000244  -21343.90429     42.809544
   14476           0     -1844.756104   -600.000244  -21700.00000     42.430851
   14477           0     -1844.756104   -600.000244  -22056.09765     41.989971
   14478           0     -1844.756104   -600.000244  -22412.19726     41.574848
   14479           0     -1844.756104   -600.000244  -22768.29296     41.098808
   14480           0     -1844.756104   -600.000244  -23124.39062     40.691776
   14481           0     -1844.756104   -600.000244  -23480.48828     40.231033
   14482           0     -1844.756104   -600.000244  -23836.58789     39.943684
   14483           0     -1844.755859   -600.000244  -24192.68359     39.629063
   14484           0     -1844.755859   -600.000244  -24548.78125     39.680252
   14485           0     -1844.755859   -600.000244  -24904.87890     39.778599
   14486           0     -1844.755859   -600.000244  -25260.97460     40.502819
   14487           0     -1844.755859   -600.000244  -25617.07226     41.466179
   14488           0     -1844.755859   -600.000244  -25973.17187     43.159180
   14489           0     -1844.755859   -600.000244  -26329.26953     45.681213
   14490           0     -1844.755859   -600.000244  -26685.36914     48.172718
   14491           0     -1844.755859   -600.000244  -27041.46484     53.841358
   14492           0     -1844.755859   -600.000244  -27397.56250     55.841618
   14493           0     -1844.755859   -600.000244  -27753.66015     71.389023
   14494           0     -1844.755615   -600.000244  -28109.75781     69.888176
   14495           0     -1844.755615   -600.000244  -28465.85351    128.684296
   14496           0     -1844.756104   -600.000244  -28821.95117    372.825348
   14497           0      1844.756104   -600.000000   -180.003326    401.727783
   14498           0      1844.756104   -600.000000   -540.003357    103.196083
   14499           0      1844.756104   -600.000000   -900.003418     66.071571
   14500           0      1844.756104   -600.000000  -1260.003418     56.011822
   14501           0      1844.756104   -600.000000  -1620.003418     48.194294
   14502           0      1844.756104   -600.000000  -1980.003418     45.070660
   14503           0      1844.756104   -600.000000  -2340.003662     42.179623
   14504           0      1844.756104   -600.000000  -2700.003418     40.117805
   14505           0      1844.756104   -600.000000  -3060.003174     38.614777
   14506           0      1844.756104   -600.000000  -3420.003418     37.399918
   14507           0      1844.756104   -600.000000  -3780.003418     36.689056
   14508           0      1844.756104   -600.000000  -4140.003906     36.133801
   14509           0      1844.756104   -600.000000  -4500.003906     35.898689
   14510           0      1844.756104   -600.000000  -4860.003906     35.731327
   14511           0      1844.756104   -600.000000  -5220.003906     35.720764
   14512           0      1844.756104   -600.000000  -5580.003906     35.720230
   14513           0      1844.756104   -600.000000  -5940.003906     35.770889
   14514           0      1844.756104   -600.000000  -6300.003906     35.804123
   14515           0      1844.756104   -600.000000  -6660.003906     35.827480
   14516           0      1844.756104   -600.000000  -7020.003906     35.831161
   14517           0      1844.756104   -600.000000  -7380.003906     35.788330
   14518           0      1844.756104   -600.000000  -7740.003906     35.749992
   14519           0      1844.756104   -600.000000  -8100.003906     35.638577
   14520           0      1844.756104   -600.000000  -8460.003906     35.596748
   14521           0      1844.756104   -600.000000  -8820.003906     35.456406
   14522           0      1844.756104   -600.000000  -9180.003906     35.525093
   14523           0      1844.756104   -600.000000  -9540.003906     35.463932
   14524           0      1844.756104   -600.000000  -9900.003906     35.876553
   14525           0      1844.756104   -600.000000  -10260.00390     36.112061
   14526           0      1844.756104   -600.000000  -10620.00390     37.238693
   14527           0      1844.756104   -600.000000  -10980.00390     38.124840
   14528           0      1844.756104   -600.000000  -11340.00390     40.331657
   14529           0      1844.756104   -600.000000  -11700.00390     42.411686
   14530           0      1844.756104   -600.000000  -12060.00390     45.635181
   14531           0      1844.756104   -600.000000  -12420.00390     50.416588
   14532           0      1844.756104   -600.000000  -12780.00390     53.352425
   14533           0      1844.756104   -600.000000  -13140.00390     68.219284
   14534           0      1844.756104   -600.000000  -13500.00390     66.882523
   14535           0      1844.756104   -600.000000  -13860.00390    128.835388
   14536           0      1844.756104   -600.000000  -14220.00293    380.212830
   14537           0      1509.345825   -600.000000   -180.003326    111.196228
   14538           0      1509.345825   -600.000000   -540.003296     60.804485
   14539           0      1509.345825   -600.000000   -900.003418     72.564659
   14540           0      1509.345825   -600.000000  -1260.003418     76.453484
   14541           0      1509.345825   -600.000000  -1620.003418     85.303696
   14542           0      1509.345825   -600.000000  -1980.003296     88.449066
   14543           0      1509.345825   -600.000000  -2340.003418     91.092171
   14544           0      1509.345825   -600.000000  -2700.003418     92.979790
   14545           0      1509.345825   -600.000000  -3060.003174     94.420143
   14546           0      1509.345825   -600.000000  -3420.003418     95.744446
   14547           0      1509.345825   -600.000000  -3780.003418     96.800079
   14548           0      1509.345825   -600.000000  -4140.003418     97.792740
   14549           0      1509.345825   -600.000000  -4500.003418     98.592545
   14550           0      1509.345825   -600.000000  -4860.003418     99.310730
   14551           0      1509.345825   -600.000000  -5220.003418     99.875046
   14552           0      1509.345825   -600.000000  -5580.003418    100.343590
   14553           0      1509.345825   -600.000000  -5940.003418    100.684196
   14554           0      1509.345825   -600.000000  -6300.003418    100.921112
   14555           0      1509.345825   -600.000000  -6660.003418    101.048592
   14556           0      1509.345825   -600.000000  -7020.003418    101.062775
   14557           0      1509.345825   -600.000000  -7380.003418    100.981804
   14558           0      1509.345825   -600.000000  -7740.003906    100.768822
   14559           0      1509.345825   -600.000000  -8100.003906    100.476189
   14560           0      1509.345825   -600.000000  -8460.003906    100.016335
   14561           0      1509.345825   -600.000000  -8820.003906     99.504333
   14562           0      1509.345825   -600.000000  -9180.003906     98.763336
   14563           0      1509.345825   -600.000000  -9540.002930     98.029350
   14564           0      1509.345825   -600.000000  -9900.003906     96.961906
   14565           0      1509.345947   -600.000000  -10260.00390     96.021652
   14566           0      1509.345947   -600.000000  -10620.00390     94.571724
   14567           0      1509.345947   -600.000000  -10980.00390     93.445351
   14568           0      1509.345947   -600.000000  -11340.00390     91.513374
   14569           0      1509.345947   -600.000000  -11700.00390     90.029709
   14570           0      1509.345947   -600.000000  -12060.00390     87.358871
   14571           0      1509.345947   -600.000000  -12420.00390     84.063316
   14572           0      1509.345947   -600.000000  -12780.00390     80.645706
   14573           0      1509.345947   -600.000000  -13140.00390     66.062286
   14574           0      1509.345947   -600.000000  -13500.00390     70.915115
   14575           0      1509.345947   -600.000000  -13860.00390     67.436760
   14576           0      1509.345947   -600.000000  -14220.00293    121.631760
   14577           0      1173.935547   -600.000061   -180.003326     82.108215
   14578           0      1173.935547   -600.000061   -540.003296     83.077065
   14579           0      1173.935547   -600.000061   -900.003418     90.421623
   14580           0      1173.935547   -600.000061  -1260.003418    115.392868
   14581           0      1173.935547   -600.000061  -1620.003418    123.927490
   14582           0      1173.935547   -600.000061  -1980.003296    131.463516
   14583           0      1173.935547   -600.000061  -2340.003418    136.119049
   14584           0      1173.935547   -600.000061  -2700.003418    139.833572
   14585           0      1173.935547   -600.000061  -3060.003174    142.817047
   14586           0      1173.935547   -600.000061  -3420.003418    145.236374
   14587           0      1173.935547   -600.000061  -3780.003418    147.307480
   14588           0      1173.935547   -600.000061  -4140.003418    148.993469
   14589           0      1173.935547   -600.000061  -4500.003418    150.427124
   14590           0      1173.935547   -600.000061  -4860.003418    151.576355
   14591           0      1173.935547   -600.000061  -5220.003418    152.519424
   14592           0      1173.935547   -600.000061  -5580.003418    153.243927
   14593           0      1173.935547   -600.000061  -5940.003418    153.791733
   14594           0      1173.935547   -600.000061  -6300.003418    154.163330
   14595           0      1173.935547   -600.000061  -6660.003418    154.372177
   14596           0      1173.935547   -600.000061  -7020.003418    154.428391
   14597           0      1173.935547   -600.000061  -7380.003418    154.317490
   14598           0      1173.935547   -600.000061  -7740.003906    154.063004
   14599           0      1173.935547   -600.000061  -8100.003906    153.614136
   14600           0      1173.935547   -600.000061  -8460.003906    153.021042
   14601           0      1173.935547   -600.000061  -8820.003906    152.176041
   14602           0      1173.935547   -600.000061  -9180.003906    151.184036
   14603           0      1173.935547   -600.000061  -9540.002930    149.840012
   14604           0      1173.935669   -600.000061  -9900.003906    148.355392
   14605           0      1173.935669   -600.000061  -10260.00390    146.355988
   14606           0      1173.935669   -600.000061  -10620.00390    144.238861
   14607           0      1173.935669   -600.000061  -10980.00390    141.346191
   14608           0      1173.935669   -600.000061  -11340.00390    138.315704
   14609           0      1173.935669   -600.000061  -11700.00390    134.089691
   14610           0      1173.935669   -600.000061  -12060.00390    129.188293
   14611           0      1173.935669   -600.000061  -12420.00390    122.571358
   14612           0      1173.935669   -600.000061  -12780.00390    111.491943
   14613           0      1173.935669   -600.000061  -13140.00390    100.707191
   14614           0      1173.935669   -600.000061  -13500.00390     64.277359
   14615           0      1173.935669   -600.000061  -13860.00390     91.429207
   14616           0      1173.935547   -600.000061  -14220.00293     84.278763
   14617           0       838.525208   -600.000061   -180.003326    146.775635
   14618           0       838.525208   -600.000061   -540.003296    136.778427
   14619           0       838.525208   -600.000061   -900.003418    141.504562
   14620           0       838.525208   -600.000061  -1260.003418    147.694016
   14621           0       838.525208   -600.000061  -1620.003418    158.494934
   14622           0       838.525208   -600.000061  -1980.003296    164.985046
   14623           0       838.525208   -600.000061  -2340.003418    170.898331
   14624           0       838.525208   -600.000061  -2700.003418    175.475967
   14625           0       838.525208   -600.000061  -3060.003174    179.357040
   14626           0       838.525208   -600.000061  -3420.003418    182.604568
   14627           0       838.525208   -600.000061  -3780.003418    185.301086
   14628           0       838.525208   -600.000061  -4140.003418    187.566208
   14629           0       838.525208   -600.000061  -4500.003418    189.413055
   14630           0       838.525208   -600.000061  -4860.003418    190.933075
   14631           0       838.525208   -600.000061  -5220.003418    192.137360
   14632           0       838.525208   -600.000061  -5580.003418    193.084152
   14633           0       838.525208   -600.000061  -5940.003418    193.786072
   14634           0       838.525208   -600.000061  -6300.003418    194.272583
   14635           0       838.525208   -600.000061  -6660.003418    194.555984
   14636           0       838.525146   -600.000061  -7020.003418    194.639450
   14637           0       838.525085   -600.000061  -7380.003418    194.536377
   14638           0       838.525085   -600.000061  -7740.003906    194.220703
   14639           0       838.525085   -600.000061  -8100.003906    193.713104
   14640           0       838.525085   -600.000061  -8460.003906    192.947540
   14641           0       838.525085   -600.000061  -8820.003906    191.965668
   14642           0       838.525085   -600.000061  -9180.003906    190.639130
   14643           0       838.525085   -600.000061  -9540.002930    189.056366
   14644           0       838.525085   -600.000061  -9900.003906    186.988068
   14645           0       838.525085   -600.000061  -10260.00390    184.610718
   14646           0       838.525085   -600.000061  -10620.00390    181.539368
   14647           0       838.525085   -600.000061  -10980.00390    178.074860
   14648           0       838.525085   -600.000061  -11340.00390    173.646027
   14649           0       838.525085   -600.000061  -11700.00390    168.550308
   14650           0       838.525085   -600.000061  -12060.00390    162.305069
   14651           0       838.525085   -600.000061  -12420.00390    154.059647
   14652           0       838.525085   -600.000061  -12780.00390    145.907623
   14653           0       838.525085   -600.000061  -13140.00390    130.280014
   14654           0       838.525085   -600.000061  -13500.00390    132.917587
   14655           0       838.525085   -600.000061  -13860.00390    125.960068
   14656           0       838.525146   -600.000061  -14220.00293    141.876068
   14657           0       503.114929   -600.000061   -180.003326    188.126617
   14658           0       503.114929   -600.000061   -540.003296    176.082291
   14659           0       503.114929   -600.000061   -900.003418    173.340927
   14660           0       503.114929   -600.000061  -1260.003418    177.068192
   14661           0       503.114929   -600.000061  -1620.003418    182.014877
   14662           0       503.114929   -600.000061  -1980.003296    188.683929
   14663           0       503.114929   -600.000061  -2340.003418    194.235092
   14664           0       503.114868   -600.000061  -2700.003418    199.393188
   14665           0       503.114868   -600.000061  -3060.003174    203.777191
   14666           0       503.114868   -600.000061  -3420.003418    207.531967
   14667           0       503.114868   -600.000061  -3780.003418    210.695572
   14668           0       503.114868   -600.000061  -4140.003418    213.320892
   14669           0       503.114868   -600.000061  -4500.003418    215.493607
   14670           0       503.114868   -600.000061  -4860.003418    217.252228
   14671           0       503.114868   -600.000061  -5220.003418    218.665176
   14672           0       503.114868   -600.000061  -5580.003418    219.762665
   14673           0       503.114868   -600.000061  -5940.003418    220.587509
   14674           0       503.114868   -600.000061  -6300.003418    221.160919
   14675           0       503.114868   -600.000061  -6660.003418    221.501205
   14676           0       503.114807   -600.000061  -7020.003418    221.621338
   14677           0       503.114746   -600.000061  -7380.003418    221.515198
   14678           0       503.114746   -600.000061  -7740.003906    221.190247
   14679           0       503.114746   -600.000061  -8100.003906    220.611755
   14680           0       503.114746   -600.000061  -8460.003906    219.787247
   14681           0       503.114746   -600.000061  -8820.003906    218.642548
   14682           0       503.114746   -600.000061  -9180.003906    217.195953
   14683           0       503.114746   -600.000061  -9540.002930    215.314392
   14684           0       503.114746   -600.000061  -9900.003906    213.045868
   14685           0       503.114746   -600.000061  -10260.00390    210.171890
   14686           0       503.114746   -600.000061  -10620.00390    206.795639
   14687           0       503.114746   -600.000061  -10980.00390    202.602737
   14688           0       503.114746   -600.000061  -11340.00390    197.746353
   14689           0       503.114746   -600.000061  -11700.00390    191.963623
   14690           0       503.114746   -600.000061  -12060.00390    185.191818
   14691           0       503.114685   -600.000061  -12420.00390    178.308884
   14692           0       503.114685   -600.000061  -12780.00390    169.389038
   14693           0       503.114685   -600.000061  -13140.00390    166.669769
   14694           0       503.114685   -600.000061  -13500.00390    161.986938
   14695           0       503.114685   -600.000061  -13860.00390    169.889160
   14696           0       503.114807   -600.000061  -14220.00293    171.485413
   14697           0       167.704681   -600.000122   -180.003326    208.260773
   14698           0       167.704681   -600.000122   -540.003296    195.501709
   14699           0       167.704681   -600.000122   -900.003418    190.664871
   14700           0       167.704681   -600.000122  -1260.003418    191.178131
   14701           0       167.704681   -600.000122  -1620.003418    195.194870
   14702           0       167.704681   -600.000122  -1980.003296    200.391083
   14703           0       167.704651   -600.000122  -2340.003418    206.097305
   14704           0       167.704620   -600.000122  -2700.003418    211.346329
   14705           0       167.704620   -600.000122  -3060.003174    216.037247
   14706           0       167.704620   -600.000122  -3420.003418    220.066849
   14707           0       167.704620   -600.000122  -3780.003418    223.474976
   14708           0       167.704620   -600.000122  -4140.003418    226.320145
   14709           0       167.704620   -600.000122  -4500.003418    228.663071
   14710           0       167.704620   -600.000122  -4860.003418    230.572647
   14711           0       167.704620   -600.000122  -5220.003418    232.099945
   14712           0       167.704620   -600.000122  -5580.003418    233.295609
   14713           0       167.704620   -600.000122  -5940.003418    234.194901
   14714           0       167.704620   -600.000122  -6300.003418    234.827164
   14715           0       167.704620   -600.000122  -6660.003418    235.212021
   14716           0       167.704559   -600.000122  -7020.003418    235.358383
   14717           0       167.704498   -600.000122  -7380.003418    235.271667
   14718           0       167.704498   -600.000122  -7740.003906    234.939926
   14719           0       167.704498   -600.000122  -8100.003906    234.356003
   14720           0       167.704498   -600.000122  -8460.003906    233.483597
   14721           0       167.704498   -600.000122  -8820.003906    232.304993
   14722           0       167.704498   -600.000122  -9180.003906    230.752106
   14723           0       167.704498   -600.000122  -9540.002930    228.801102
   14724           0       167.704498   -600.000122  -9900.003906    226.341507
   14725           0       167.704498   -600.000122  -10260.00390    223.353485
   14726           0       167.704498   -600.000122  -10620.00390    219.678558
   14727           0       167.704498   -600.000122  -10980.00390    215.323151
   14728           0       167.704498   -600.000122  -11340.00390    210.126114
   14729           0       167.704498   -600.000122  -11700.00390    204.162643
   14730           0       167.704468   -600.000122  -12060.00390    197.598633
   14731           0       167.704437   -600.000122  -12420.00390    190.616501
   14732           0       167.704437   -600.000122  -12780.00390    185.381226
   14733           0       167.704437   -600.000122  -13140.00390    181.401184
   14734           0       167.704437   -600.000122  -13500.00390    183.111877
   14735           0       167.704437   -600.000122  -13860.00390    185.392441
   14736           0       167.704559   -600.000122  -14220.00293    189.786270
   14737           0      -167.705566   -600.000122   -180.003326    210.054123
   14738           0      -167.705566   -600.000122   -540.003296    196.472977
   14739           0      -167.705566   -600.000122   -900.003418    190.967285
   14740           0      -167.705627   -600.000122  -1260.003418    191.010788
   14741           0      -167.705688   -600.000122  -1620.003418    194.963470
   14742           0      -167.705688   -600.000122  -1980.003296    200.201218
   14743           0      -167.705688   -600.000122  -2340.003418    206.018097
   14744           0      -167.705688   -600.000122  -2700.003418    211.367279
   14745           0      -167.705688   -600.000122  -3060.003174    216.136261
   14746           0      -167.705750   -600.000122  -3420.003418    220.231018
   14747           0      -167.705811   -600.000122  -3780.003418    223.689438
   14748           0      -167.705811   -600.000122  -4140.003418    226.579575
   14749           0      -167.705811   -600.000122  -4500.003418    228.960495
   14750           0      -167.705811   -600.000122  -4860.003418    230.905975
   14751           0      -167.705811   -600.000122  -5220.003418    232.465530
   14752           0      -167.705811   -600.000122  -5580.003418    233.692490
   14753           0      -167.705872   -600.000122  -5940.003418    234.620773
   14754           0      -167.705933   -600.000122  -6300.003418    235.281403
   14755           0      -167.705933   -600.000122  -6660.003418    235.692780
   14756           0      -167.705963   -600.000122  -7020.003418    235.865387
   14757           0      -167.705994   -600.000122  -7380.003418    235.803024
   14758           0      -167.705994   -600.000122  -7740.003906    235.495926
   14759           0      -167.705994   -600.000122  -8100.003906    234.934036
   14760           0      -167.706055   -600.000122  -8460.003906    234.084885
   14761           0      -167.706116   -600.000122  -8820.003906    232.925415
   14762           0      -167.706116   -600.000122  -9180.003906    231.395126
   14763           0      -167.706116   -600.000122  -9540.002930    229.459427
   14764           0      -167.706116   -600.000122  -9900.003906    227.023560
   14765           0      -167.706116   -600.000122  -10260.00390    224.046494
   14766           0      -167.706116   -600.000122  -10620.00390    220.401688
   14767           0      -167.706177   -600.000122  -10980.00390    216.054489
   14768           0      -167.706238   -600.000122  -11340.00390    210.907394
   14769           0      -167.706238   -600.000122  -11700.00390    204.957443
   14770           0      -167.706238   -600.000122  -12060.00390    198.486664
   14771           0      -167.706238   -600.000122  -12420.00390    191.544128
   14772           0      -167.706238   -600.000122  -12780.00390    186.424683
   14773           0      -167.706299   -600.000122  -13140.00390    182.548218
   14774           0      -167.706360   -600.000122  -13500.00390    184.264999
   14775           0      -167.706360   -600.000122  -13860.00390    186.651855
   14776           0      -167.705963   -600.000122  -14220.00293    191.002426
   14777           0      -503.115967   -600.000122   -180.003326    193.502884
   14778           0      -503.115967   -600.000122   -540.003296    179.024673
   14779           0      -503.115967   -600.000122   -900.003418    173.886139
   14780           0      -503.116028   -600.000122  -1260.003418    176.580093
   14781           0      -503.116089   -600.000122  -1620.003418    181.283859
   14782           0      -503.116089   -600.000122  -1980.003296    188.198212
   14783           0      -503.116089   -600.000122  -2340.003418    194.062622
   14784           0      -503.116089   -600.000122  -2700.003418    199.496460
   14785           0      -503.116089   -600.000122  -3060.003174    204.106903
   14786           0      -503.116211   -600.000122  -3420.003418    208.039566
   14787           0      -503.116333   -600.000122  -3780.003418    211.353683
   14788           0      -503.116333   -600.000122  -4140.003418    214.105820
   14789           0      -503.116333   -600.000122  -4500.003418    216.393829
   14790           0      -503.116333   -600.000122  -4860.003418    218.256393
   14791           0      -503.116333   -600.000122  -5220.003418    219.767685
   14792           0      -503.116333   -600.000122  -5580.003418    220.957062
   14793           0      -503.116394   -600.000122  -5940.003418    221.870255
   14794           0      -503.116455   -600.000122  -6300.003418    222.527557
   14795           0      -503.116455   -600.000122  -6660.003418    222.949097
   14796           0      -503.116455   -600.000122  -7020.003418    223.146851
   14797           0      -503.116455   -600.000122  -7380.003418    223.116211
   14798           0      -503.116455   -600.000122  -7740.003906    222.863220
   14799           0      -503.116455   -600.000122  -8100.003906    222.354889
   14800           0      -503.116516   -600.000122  -8460.003906    221.596405
   14801           0      -503.116577   -600.000122  -8820.003906    220.516571
   14802           0      -503.116577   -600.000122  -9180.003906    219.129349
   14803           0      -503.116577   -600.000122  -9540.002930    217.308029
   14804           0      -503.116577   -600.000122  -9900.003906    215.092865
   14805           0      -503.116577   -600.000122  -10260.00390    212.279068
   14806           0      -503.116577   -600.000122  -10620.00390    208.955566
   14807           0      -503.116699   -600.000122  -10980.00390    204.839874
   14808           0      -503.116821   -600.000122  -11340.00390    200.053162
   14809           0      -503.116821   -600.000122  -11700.00390    194.412491
   14810           0      -503.116821   -600.000122  -12060.00390    187.754333
   14811           0      -503.116821   -600.000122  -12420.00390    181.182083
   14812           0      -503.116821   -600.000122  -12780.00390    172.354279
   14813           0      -503.116882   -600.000122  -13140.00390    170.189880
   14814           0      -503.116943   -600.000122  -13500.00390    165.661667
   14815           0      -503.116943   -600.000122  -13860.00390    173.884186
   14816           0      -503.116455   -600.000122  -14220.00293    175.554977
   14817           0      -838.526489   -600.000122   -180.003326    155.842133
   14818           0      -838.526489   -600.000122   -540.003296    140.915131
   14819           0      -838.526489   -600.000122   -900.003418    141.934662
   14820           0      -838.526489   -600.000122  -1260.003418    146.526001
   14821           0      -838.526489   -600.000122  -1620.003418    157.468918
   14822           0      -838.526489   -600.000122  -1980.003296    164.432510
   14823           0      -838.526489   -600.000122  -2340.003418    170.808243
   14824           0      -838.526489   -600.000122  -2700.003418    175.788284
   14825           0      -838.526489   -600.000122  -3060.003174    179.989777
   14826           0      -838.526489   -600.000122  -3420.003418    183.509674
   14827           0      -838.526611   -600.000122  -3780.003418    186.433182
   14828           0      -838.526611   -600.000122  -4140.003418    188.903473
   14829           0      -838.526611   -600.000122  -4500.003418    190.933334
   14830           0      -838.526611   -600.000122  -4860.003418    192.626022
   14831           0      -838.526611   -600.000122  -5220.003418    193.990738
   14832           0      -838.526611   -600.000122  -5580.003418    195.091690
   14833           0      -838.526611   -600.000122  -5940.003418    195.939880
   14834           0      -838.526611   -600.000122  -6300.003418    196.567917
   14835           0      -838.526611   -600.000122  -6660.003418    196.987228
   14836           0      -838.526611   -600.000122  -7020.003418    197.202454
   14837           0      -838.526611   -600.000122  -7380.003418    197.226669
   14838           0      -838.526611   -600.000122  -7740.003906    197.034088
   14839           0      -838.526611   -600.000122  -8100.003906    196.645645
   14840           0      -838.526611   -600.000122  -8460.003906    195.994217
   14841           0      -838.526611   -600.000122  -8820.003906    195.123047
   14842           0      -838.526611   -600.000122  -9180.003906    193.900970
   14843           0      -838.526611   -600.000122  -9540.002930    192.420792
   14844           0      -838.526611   -600.000122  -9900.003906    190.448257
   14845           0      -838.526611   -600.000122  -10260.00390    188.170212
   14846           0      -838.526611   -600.000122  -10620.00390    185.195709
   14847           0      -838.526611   -600.000122  -10980.00390    181.844330
   14848           0      -838.526733   -600.000122  -11340.00390    177.549011
   14849           0      -838.526733   -600.000122  -11700.00390    172.612549
   14850           0      -838.526733   -600.000122  -12060.00390    166.640335
   14851           0      -838.526733   -600.000122  -12420.00390    158.574265
   14852           0      -838.526733   -600.000122  -12780.00390    151.154465
   14853           0      -838.526733   -600.000122  -13140.00390    135.217789
   14854           0      -838.526733   -600.000122  -13500.00390    140.239410
   14855           0      -838.526733   -600.000122  -13860.00390    133.814667
   14856           0      -838.526611   -600.000122  -14220.00293    150.717957
   14857           0     -1173.936768   -600.000122   -180.003326     94.927818
   14858           0     -1173.936768   -600.000122   -540.003296     88.204376
   14859           0     -1173.936768   -600.000122   -900.003418     89.040627
   14860           0     -1173.936768   -600.000122  -1260.003418    114.025421
   14861           0     -1173.936768   -600.000122  -1620.003418    123.139381
   14862           0     -1173.936768   -600.000122  -1980.003296    131.217087
   14863           0     -1173.936768   -600.000122  -2340.003418    136.375961
   14864           0     -1173.936768   -600.000122  -2700.003418    140.505417
   14865           0     -1173.936768   -600.000122  -3060.003174    143.861954
   14866           0     -1173.936768   -600.000122  -3420.003418    146.599258
   14867           0     -1173.936768   -600.000122  -3780.003418    148.965149
   14868           0     -1173.936768   -600.000122  -4140.003418    150.915436
   14869           0     -1173.936768   -600.000122  -4500.003418    152.600952
   14870           0     -1173.936768   -600.000122  -4860.003418    153.984283
   14871           0     -1173.936768   -600.000122  -5220.003418    155.153381
   14872           0     -1173.936768   -600.000122  -5580.003418    156.092560
   14873           0     -1173.936768   -600.000122  -5940.003418    156.848785
   14874           0     -1173.936768   -600.000122  -6300.003418    157.421112
   14875           0     -1173.936768   -600.000122  -6660.003418    157.825287
   14876           0     -1173.936768   -600.000122  -7020.003418    158.071625
   14877           0     -1173.936768   -600.000122  -7380.003418    158.145218
   14878           0     -1173.936768   -600.000122  -7740.003906    158.071793
   14879           0     -1173.936768   -600.000122  -8100.003906    157.796783
   14880           0     -1173.936768   -600.000122  -8460.003906    157.376175
   14881           0     -1173.936768   -600.000122  -8820.003906    156.692749
   14882           0     -1173.936768   -600.000122  -9180.003906    155.864838
   14883           0     -1173.936768   -600.000122  -9540.002930    154.667786
   14884           0     -1173.936768   -600.000122  -9900.003906    153.342041
   14885           0     -1173.936768   -600.000122  -10260.00390    151.475677
   14886           0     -1173.936768   -600.000122  -10620.00390    149.525040
   14887           0     -1173.936768   -600.000122  -10980.00390    146.764786
   14888           0     -1173.936768   -600.000122  -11340.00390    143.938339
   14889           0     -1173.936768   -600.000122  -11700.00390    139.886749
   14890           0     -1173.936768   -600.000122  -12060.00390    135.251450
   14891           0     -1173.936768   -600.000122  -12420.00390    128.965759
   14892           0     -1173.936768   -600.000122  -12780.00390    118.032478
   14893           0     -1173.936768   -600.000122  -13140.00390    108.622398
   14894           0     -1173.936768   -600.000122  -13500.00390     69.894928
   14895           0     -1173.936768   -600.000122  -13860.00390    108.128525
   14896           0     -1173.936768   -600.000122  -14220.00293    104.679504
   14897           0     -1509.347168   -600.000183   -180.003326    111.831650
   14898           0     -1509.347168   -600.000183   -540.003296     58.447865
   14899           0     -1509.347168   -600.000183   -900.003418     72.511276
   14900           0     -1509.347168   -600.000183  -1260.003418     76.513779
   14901           0     -1509.347168   -600.000183  -1620.003418     85.528519
   14902           0     -1509.347168   -600.000183  -1980.003296     88.956886
   14903           0     -1509.347168   -600.000183  -2340.003418     91.912292
   14904           0     -1509.347046   -600.000183  -2700.003418     94.157852
   14905           0     -1509.347046   -600.000183  -3060.003174     95.947678
   14906           0     -1509.347046   -600.000183  -3420.003418     97.627159
   14907           0     -1509.347046   -600.000183  -3780.003418     99.019234
   14908           0     -1509.347046   -600.000183  -4140.003418    100.342827
   14909           0     -1509.347046   -600.000183  -4500.003418    101.456612
   14910           0     -1509.347046   -600.000183  -4860.003418    102.481621
   14911           0     -1509.347046   -600.000183  -5220.003418    103.340065
   14912           0     -1509.347046   -600.000183  -5580.003418    104.096344
   14913           0     -1509.347046   -600.000183  -5940.003418    104.716148
   14914           0     -1509.347046   -600.000183  -6300.003418    105.226906
   14915           0     -1509.347046   -600.000183  -6660.003418    105.623154
   14916           0     -1509.347046   -600.000183  -7020.003418    105.901085
   14917           0     -1509.346924   -600.000183  -7380.003418    106.081619
   14918           0     -1509.346924   -600.000183  -7740.003906    106.123878
   14919           0     -1509.346924   -600.000183  -8100.003906    106.086952
   14920           0     -1509.346924   -600.000183  -8460.003906    105.872749
   14921           0     -1509.346924   -600.000183  -8820.003906    105.610466
   14922           0     -1509.346924   -600.000183  -9180.003906    105.101974
   14923           0     -1509.346924   -600.000183  -9540.002930    104.611000
   14924           0     -1509.346924   -600.000183  -9900.003906    103.758499
   14925           0     -1509.346924   -600.000183  -10260.00390    103.055916
   14926           0     -1509.346924   -600.000183  -10620.00390    101.802750
   14927           0     -1509.346924   -600.000183  -10980.00390    100.915916
   14928           0     -1509.346924   -600.000183  -11340.00390     99.168388
   14929           0     -1509.346924   -600.000183  -11700.00390     97.934929
   14930           0     -1509.346924   -600.000183  -12060.00390     95.398903
   14931           0     -1509.346924   -600.000183  -12420.00390     92.349800
   14932           0     -1509.346924   -600.000183  -12780.00390     88.594185
   14933           0     -1509.346924   -600.000183  -13140.00390     74.264587
   14934           0     -1509.346924   -600.000183  -13500.00390     76.614090
   14935           0     -1509.346924   -600.000183  -13860.00390     61.526474
   14936           0     -1509.347046   -600.000183  -14220.00293    148.078323
   14937           0     -1844.756836   -600.000244   -180.003326    383.704956
   14938           0     -1844.756836   -600.000244   -540.003357    108.687317
   14939           0     -1844.756836   -600.000244   -900.003418     68.935585
   14940           0     -1844.756836   -600.000244  -1260.003418     58.355556
   14941           0     -1844.756836   -600.000244  -1620.003418     49.555874
   14942           0     -1844.756836   -600.000244  -1980.003418     46.422699
   14943           0     -1844.756836   -600.000244  -2340.003662     43.307537
   14944           0     -1844.756592   -600.000244  -2700.003662     41.589870
   14945           0     -1844.756592   -600.000244  -3060.003418     40.279877
   14946           0     -1844.756592   -600.000244  -3420.003418     39.543762
   14947           0     -1844.756592   -600.000244  -3780.003662     39.205051
   14948           0     -1844.756592   -600.000244  -4140.003418     39.148792
   14949           0     -1844.756592   -600.000244  -4500.003418     39.339169
   14950           0     -1844.756592   -600.000244  -4860.003906     39.649357
   14951           0     -1844.756592   -600.000244  -5220.003906     40.070313
   14952           0     -1844.756592   -600.000244  -5580.003906     40.523544
   14953           0     -1844.756592   -600.000244  -5940.003418     41.003044
   14954           0     -1844.756592   -600.000244  -6300.003906     41.476269
   14955           0     -1844.756592   -600.000244  -6660.003906     41.929775
   14956           0     -1844.756592   -600.000244  -7020.003906     42.368622
   14957           0     -1844.756592   -600.000244  -7380.003418     42.762554
   14958           0     -1844.756592   -600.000244  -7740.003906     43.156338
   14959           0     -1844.756592   -600.000244  -8100.003906     43.490238
   14960           0     -1844.756592   -600.000244  -8460.003906     43.865349
   14961           0     -1844.756592   -600.000244  -8820.003906     44.174892
   14962           0     -1844.756592   -600.000244  -9180.003906     44.606239
   14963           0     -1844.756592   -600.000244  -9540.002930     44.989323
   14964           0     -1844.756592   -600.000244  -9900.003906     45.620895
   14965           0     -1844.756592   -600.000244  -10260.00390     46.289982
   14966           0     -1844.756592   -600.000244  -10620.00390     47.325844
   14967           0     -1844.756592   -600.000244  -10980.00390     48.680851
   14968           0     -1844.756592   -600.000244  -11340.00390     50.240250
   14969           0     -1844.756592   -600.000244  -11700.00390     52.979702
   14970           0     -1844.756592   -600.000244  -12060.00390     54.692322
   14971           0     -1844.756348   -600.000244  -12420.00390     60.349823
   14972           0     -1844.756348   -600.000244  -12780.00390     60.775509
   14973           0     -1844.756348   -600.000244  -13140.00390     75.033051
   14974           0     -1844.756348   -600.000244  -13500.00390     72.608940
   14975           0     -1844.756348   -600.000244  -13860.00390    124.219666
   14976           0     -1844.756592   -600.000244  -14220.00293    400.677612