MSC.Patran 21.1.348049 Fri Jul 03 23:12:17 PDT 2015 - Analysis Code: MSC.Nastran 

                                             Load Case: Combined_Loads, Subcase 5 

                                             Result Stress Tensor,  - Layer At Z2 

                                                     Entity: Element Tensor


-Entity ID--El. Pos. ID---X Location----Y Location----Z Location----von Mises---
       1           0      2028.065308   -541.565674  -29166.66601    119.901947
       2           0      2028.065308   -541.565674  -29500.00000    213.844345
       3           0      2028.065308   -541.565674  -29833.33203    189.296097
       4           0      2028.065308   -541.565674  -30166.66601    178.019852
       5           0      2028.065308   -541.565674  -30500.00000    173.686066
       6           0      2028.065308   -541.565674  -30833.33593    164.263153
       7           0      2028.065308   -541.565674  -31166.66601    161.547485
       8           0      2028.065308   -541.565674  -31500.00000    158.686462
       9           0      2028.065308   -541.565674  -31833.33203    158.486633
      10           0      2028.065308   -541.565674  -32166.66796    161.711777
      11           0      2028.065308   -541.565674  -32500.00195    165.531464
      12           0      2028.065308   -541.565674  -32833.33593    176.880295
      13           0      2028.065308   -541.565674  -33166.66796    180.703781
      14           0      2028.065308   -541.565674  -33500.00000    218.371002
      15           0      2028.065308   -541.565674  -33833.33593    125.178894
      16           0      2055.883057   -423.895721  -29166.66601    109.013977
      17           0      2055.883057   -423.895721  -29500.00000     99.911583
      18           0      2055.883057   -423.895721  -29833.33203    114.004784
      19           0      2055.883057   -423.895721  -30166.66601    120.122192
      20           0      2055.883057   -423.895721  -30500.00000    125.054459
      21           0      2055.883057   -423.895721  -30833.33593    127.227409
      22           0      2055.883057   -423.895721  -31166.66601    127.844444
      23           0      2055.883057   -423.895721  -31500.00000    127.825401
      24           0      2055.883057   -423.895721  -31833.33203    126.398857
      25           0      2055.883057   -423.895721  -32166.66796    124.645683
      26           0      2055.883057   -423.895721  -32500.00195    120.362846
      27           0      2055.883057   -423.895721  -32833.33593    114.746742
      28           0      2055.883057   -423.895721  -33166.66796    102.233185
      29           0      2055.883057   -423.895721  -33500.00000     75.331474
      30           0      2055.883057   -423.895721  -33833.33593     72.285316
      31           0      2076.948730   -304.226929  -29166.66601    108.227264
      32           0      2076.948730   -304.226929  -29500.00000     94.631653
      33           0      2076.948730   -304.226929  -29833.33203     74.815819
      34           0      2076.948730   -304.226929  -30166.66601     70.621269
      35           0      2076.948730   -304.226929  -30500.00000     75.734840
      36           0      2076.948730   -304.226929  -30833.33593     79.770203
      37           0      2076.948730   -304.226929  -31166.66601     82.904449
      38           0      2076.948730   -304.226929  -31500.00000     83.161308
      39           0      2076.948730   -304.226929  -31833.33203     81.564949
      40           0      2076.948730   -304.226929  -32166.66796     76.158722
      41           0      2076.948730   -304.226929  -32500.00195     67.327728
      42           0      2076.948730   -304.226929  -32833.33593     53.272419
      43           0      2076.948730   -304.226929  -33166.66796     28.771509
      44           0      2076.948730   -304.226929  -33500.00000     24.948559
      45           0      2076.948730   -304.226929  -33833.33593     58.700531
      46           0      2091.124268   -182.948318  -29166.66601    101.244957
      47           0      2091.124268   -182.948318  -29500.00000     92.906807
      48           0      2091.124268   -182.948318  -29833.33203     76.244438
      49           0      2091.124268   -182.948318  -30166.66601     54.579754
      50           0      2091.124268   -182.948318  -30500.00000     45.344593
      51           0      2091.124268   -182.948318  -30833.33593     41.914185
      52           0      2091.124268   -182.948318  -31166.66601     41.683239
      53           0      2091.124268   -182.948318  -31500.00000     41.438133
      54           0      2091.124268   -182.948318  -31833.33203     38.986141
      55           0      2091.124268   -182.948318  -32166.66796     34.274910
      56           0      2091.124268   -182.948318  -32500.00195     25.321493
      57           0      2091.124268   -182.948318  -32833.33593     14.081086
      58           0      2091.124268   -182.948318  -33166.66796     12.118587
      59           0      2091.124268   -182.948318  -33500.00000     29.221960
      60           0      2091.124268   -182.948318  -33833.33593     40.883545
      61           0      2098.223877    -61.050758  -29166.66601     90.319778
      62           0      2098.223877    -61.050758  -29500.00000     84.338219
      63           0      2098.223877    -61.050758  -29833.33203     75.291931
      64           0      2098.223877    -61.050758  -30166.66601     59.565140
      65           0      2098.223877    -61.050758  -30500.00000     45.486504
      66           0      2098.223877    -61.050758  -30833.33593     35.260742
      67           0      2098.223877    -61.050758  -31166.66601     28.976530
      68           0      2098.223877    -61.050758  -31500.00000     25.825047
      69           0      2098.223877    -61.050758  -31833.33203     25.023806
      70           0      2098.223877    -61.050758  -32166.66796     24.286144
      71           0      2098.223877    -61.050758  -32500.00195     24.745731
      72           0      2098.223877    -61.050758  -32833.33593     24.632223
      73           0      2098.223877    -61.050758  -33166.66796     24.089544
      74           0      2098.223877    -61.050758  -33500.00000     26.362528
      75           0      2098.223877    -61.050758  -33833.33593     27.770069
      76           0      2098.223633     61.052742  -29166.66601     78.216736
      77           0      2098.223633     61.052742  -29500.00000     73.156548
      78           0      2098.223633     61.052742  -29833.33203     68.239723
      79           0      2098.223633     61.052742  -30166.66601     59.868008
      80           0      2098.223633     61.052742  -30500.00000     52.166161
      81           0      2098.223633     61.052742  -30833.33593     45.378372
      82           0      2098.223633     61.052742  -31166.66601     40.755180
      83           0      2098.223633     61.052742  -31500.00000     38.434395
      84           0      2098.223633     61.052742  -31833.33203     37.366047
      85           0      2098.223633     61.052742  -32166.66796     36.547863
      86           0      2098.223633     61.052742  -32500.00195     34.821770
      87           0      2098.223633     61.052742  -32833.33593     30.578096
      88           0      2098.223633     61.052742  -33166.66796     25.257641
      89           0      2098.223633     61.052742  -33500.00000     24.869904
      90           0      2098.223633     61.052742  -33833.33593     26.248917
      91           0      2091.123779    182.949707  -29166.66601     65.590652
      92           0      2091.123779    182.949707  -29500.00000     62.212875
      93           0      2091.123779    182.949707  -29833.33203     58.954845
      94           0      2091.123779    182.949707  -30166.66601     54.903957
      95           0      2091.123779    182.949707  -30500.00000     52.099354
      96           0      2091.123779    182.949707  -30833.33593     49.450775
      97           0      2091.123779    182.949707  -31166.66601     47.207642
      98           0      2091.123779    182.949707  -31500.00000     45.480190
      99           0      2091.123779    182.949707  -31833.33203     43.206474
     100           0      2091.123779    182.949707  -32166.66796     39.962460
     101           0      2091.123779    182.949707  -32500.00195     34.615032
     102           0      2091.123779    182.949707  -32833.33593     28.197466
     103           0      2091.123779    182.949707  -33166.66796     24.534512
     104           0      2091.123779    182.949707  -33500.00000     26.243294
     105           0      2091.123779    182.949707  -33833.33593     30.818296
     106           0      2076.948242    304.228210  -29166.66601     53.585407
     107           0      2076.948242    304.228210  -29500.00000     52.032001
     108           0      2076.948242    304.228210  -29833.33203     49.874523
     109           0      2076.948242    304.228210  -30166.66601     47.960499
     110           0      2076.948242    304.228210  -30500.00000     47.140995
     111           0      2076.948242    304.228210  -30833.33593     46.409824
     112           0      2076.948242    304.228210  -31166.66601     45.113071
     113           0      2076.948242    304.228210  -31500.00000     43.236374
     114           0      2076.948242    304.228210  -31833.33203     39.760803
     115           0      2076.948242    304.228210  -32166.66796     34.817677
     116           0      2076.948242    304.228210  -32500.00195     28.091969
     117           0      2076.948242    304.228210  -32833.33593     22.764755
     118           0      2076.948242    304.228210  -33166.66796     22.573296
     119           0      2076.948242    304.228210  -33500.00000     26.498829
     120           0      2076.948242    304.228210  -33833.33593     33.333961
     121           0      2055.745117    424.477325  -29166.66601     42.662766
     122           0      2055.745117    424.477325  -29500.00000     42.751202
     123           0      2055.745117    424.477325  -29833.33203     41.519535
     124           0      2055.745117    424.477325  -30166.66601     40.756073
     125           0      2055.745117    424.477325  -30500.00000     40.472492
     126           0      2055.745117    424.477325  -30833.33593     40.082939
     127           0      2055.745117    424.477325  -31166.66601     38.631878
     128           0      2055.745117    424.477325  -31500.00000     36.160839
     129           0      2055.745117    424.477325  -31833.33203     31.908072
     130           0      2055.745117    424.477325  -32166.66796     26.421932
     131           0      2055.745117    424.477325  -32500.00195     19.961283
     132           0      2055.745117    424.477325  -32833.33593     16.283813
     133           0      2055.745117    424.477325  -33166.66796     18.511541
     134           0      2055.745117    424.477325  -33500.00000     23.709852
     135           0      2055.745117    424.477325  -33833.33593     31.448412
     136           0      2027.586060    543.290161  -29166.66601     32.963291
     137           0      2027.586060    543.290161  -29500.00000     34.239666
     138           0      2027.586060    543.290161  -29833.33203     33.777626
     139           0      2027.586060    543.290161  -30166.66601     33.798176
     140           0      2027.586060    543.290161  -30500.00000     33.785809
     141           0      2027.586060    543.290161  -30833.33593     33.574265
     142           0      2027.586060    543.290161  -31166.66601     32.084801
     143           0      2027.586060    543.290161  -31500.00000     29.384684
     144           0      2027.586060    543.290161  -31833.33203     25.049448
     145           0      2027.586060    543.290161  -32166.66796     19.649155
     146           0      2027.586060    543.290161  -32500.00195     13.423584
     147           0      2027.586060    543.290161  -32833.33593      9.815999
     148           0      2027.586060    543.290161  -33166.66796     12.690169
     149           0      2027.586060    543.290161  -33500.00000     18.151577
     150           0      2027.586060    543.290161  -33833.33593     25.642086
     151           0      1992.566162    660.264648  -29166.66601     24.417892
     152           0      1992.566162    660.264648  -29500.00000     26.361475
     153           0      1992.566162    660.264648  -29833.33203     26.501207
     154           0      1992.566162    660.264648  -30166.66601     27.195517
     155           0      1992.566162    660.264648  -30500.00000     27.637924
     156           0      1992.566162    660.264648  -30833.33593     28.006374
     157           0      1992.566162    660.264648  -31166.66601     27.266853
     158           0      1992.566162    660.264648  -31500.00000     25.234694
     159           0      1992.566162    660.264648  -31833.33203     21.613604
     160           0      1992.566162    660.264648  -32166.66796     16.694653
     161           0      1992.566162    660.264648  -32500.00195     10.710607
     162           0      1992.566162    660.264648  -32833.33593      5.493322
     163           0      1992.566162    660.264648  -33166.66796      6.384212
     164           0      1992.566162    660.264648  -33500.00000     11.165929
     165           0      1992.566162    660.264648  -33833.33593     17.480160
     166           0      1950.804199    775.005005  -29166.66601     16.925663
     167           0      1950.804199    775.005005  -29500.00000     19.096779
     168           0      1950.804199    775.005005  -29833.33203     19.713127
     169           0      1950.804199    775.005005  -30166.66601     21.018473
     170           0      1950.804199    775.005005  -30500.00000     22.042231
     171           0      1950.804199    775.005005  -30833.33593     23.099953
     172           0      1950.804199    775.005005  -31166.66601     23.344765
     173           0      1950.804199    775.005005  -31500.00000     22.342796
     174           0      1950.804199    775.005005  -31833.33203     19.799135
     175           0      1950.804199    775.005005  -32166.66796     15.857396
     176           0      1950.804199    775.005005  -32500.00195     11.083906
     177           0      1950.804199    775.005005  -32833.33593      6.237794
     178           0      1950.804199    775.005005  -33166.66796      2.915122
     179           0      1950.804199    775.005005  -33500.00000      4.876411
     180           0      1950.804199    775.005005  -33833.33593      9.076015
     181           0      1902.441162    887.123047  -29166.66601     10.526740
     182           0      1902.441162    887.123047  -29500.00000     12.619382
     183           0      1902.441162    887.123047  -29833.33203     13.648076
     184           0      1902.441162    887.123047  -30166.66601     15.423029
     185           0      1902.441162    887.123047  -30500.00000     16.896749
     186           0      1902.441162    887.123047  -30833.33593     18.318783
     187           0      1902.441162    887.123047  -31166.66601     19.092367
     188           0      1902.441162    887.123047  -31500.00000     18.807762
     189           0      1902.441162    887.123047  -31833.33203     17.269527
     190           0      1902.441162    887.123047  -32166.66796     14.613571
     191           0      1902.441162    887.123047  -32500.00195     11.527825
     192           0      1902.441162    887.123047  -32833.33593      8.413204
     193           0      1902.441162    887.123047  -33166.66796      6.001022
     194           0      1902.441162    887.123047  -33500.00000      4.878096
     195           0      1902.441162    887.123047  -33833.33593      4.833164
     196           0      1847.640869    996.239258  -29166.66601      5.763999
     197           0      1847.640869    996.239258  -29500.00000      7.487632
     198           0      1847.640869    996.239258  -29833.33203      8.866948
     199           0      1847.640869    996.239258  -30166.66601     10.766195
     200           0      1847.640869    996.239258  -30500.00000     12.311482
     201           0      1847.640869    996.239258  -30833.33593     13.600986
     202           0      1847.640869    996.239258  -31166.66601     14.327414
     203           0      1847.640869    996.239258  -31500.00000     14.310022
     204           0      1847.640869    996.239258  -31833.33203     13.530212
     205           0      1847.640869    996.239258  -32166.66796     12.144824
     206           0      1847.640869    996.239258  -32500.00195     10.700603
     207           0      1847.640869    996.239258  -32833.33593      9.318771
     208           0      1847.640869    996.239258  -33166.66796      8.717546
     209           0      1847.640869    996.239258  -33500.00000      8.506693
     210           0      1847.640869    996.239258  -33833.33593      8.406632
     211           0      1786.588867   1101.984619  -29166.66601      4.664334
     212           0      1786.588867   1101.984619  -29500.00000      5.252573
     213           0      1786.588867   1101.984619  -29833.33203      6.496215
     214           0      1786.588867   1101.984619  -30166.66601      7.739488
     215           0      1786.588867   1101.984619  -30500.00000      8.784604
     216           0      1786.588867   1101.984619  -30833.33593      9.451683
     217           0      1786.588867   1101.984619  -31166.66601      9.709362
     218           0      1786.588867   1101.984619  -31500.00000      9.587847
     219           0      1786.588867   1101.984619  -31833.33203      9.217266
     220           0      1786.588867   1101.984619  -32166.66796      8.806635
     221           0      1786.588867   1101.984619  -32500.00195      8.714474
     222           0      1786.588867   1101.984619  -32833.33593      8.829665
     223           0      1786.588867   1101.984619  -33166.66796      9.838772
     224           0      1786.588867   1101.984619  -33500.00000     10.777558
     225           0      1786.588867   1101.984619  -33833.33593     11.835391
     226           0      1719.491455   1204.001221  -29166.66601      6.766520
     227           0      1719.491455   1204.001221  -29500.00000      6.478099
     228           0      1719.491455   1204.001221  -29833.33203      6.926249
     229           0      1719.491455   1204.001221  -30166.66601      6.919877
     230           0      1719.491455   1204.001221  -30500.00000      7.004017
     231           0      1719.491455   1204.001221  -30833.33593      6.700394
     232           0      1719.491455   1204.001221  -31166.66601      6.196246
     233           0      1719.491455   1204.001221  -31500.00000      5.597711
     234           0      1719.491455   1204.001221  -31833.33203      5.171648
     235           0      1719.491455   1204.001221  -32166.66796      5.302043
     236           0      1719.491455   1204.001221  -32500.00195      6.211044
     237           0      1719.491455   1204.001221  -32833.33593      7.467110
     238           0      1719.491455   1204.001221  -33166.66796      9.623240
     239           0      1719.491455   1204.001221  -33500.00000     11.379670
     240           0      1719.491455   1204.001221  -33833.33593     13.258178
     241           0      1646.575928   1301.943604  -29166.66601      8.823531
     242           0      1646.575928   1301.943604  -29500.00000      8.283866
     243           0      1646.575928   1301.943604  -29833.33203      8.190947
     244           0      1646.575928   1301.943604  -30166.66601      7.421463
     245           0      1646.575928   1301.943604  -30500.00000      6.807868
     246           0      1646.575928   1301.943604  -30833.33593      5.771649
     247           0      1646.575928   1301.943604  -31166.66601      4.597107
     248           0      1646.575928   1301.943604  -31500.00000      3.269842
     249           0      1646.575928   1301.943604  -31833.33203      2.098285
     250           0      1646.575928   1301.943604  -32166.66796      2.247700
     251           0      1646.575928   1301.943604  -32500.00195      3.930860
     252           0      1646.575928   1301.943604  -32833.33593      5.879676
     253           0      1646.575928   1301.943604  -33166.66796      8.574512
     254           0      1646.575928   1301.943604  -33500.00000     10.698475
     255           0      1646.575928   1301.943604  -33833.33593     12.882578
     256           0      1568.088867   1395.480957  -29166.66601      9.910116
     257           0      1568.088867   1395.480957  -29500.00000      9.255831
     258           0      1568.088867   1395.480957  -29833.33203      8.870726
     259           0      1568.088867   1395.480957  -30166.66601      7.840520
     260           0      1568.088867   1395.480957  -30500.00000      6.995503
     261           0      1568.088867   1395.480957  -30833.33593      5.784374
     262           0      1568.088867   1395.480957  -31166.66601      4.499630
     263           0      1568.088867   1395.480957  -31500.00000      3.021497
     264           0      1568.088867   1395.480957  -31833.33203      1.384361
     265           0      1568.088867   1395.480957  -32166.66796      0.572861
     266           0      1568.088867   1395.480957  -32500.00195      2.600466
     267           0      1568.088867   1395.480957  -32833.33593      4.604674
     268           0      1568.088867   1395.480957  -33166.66796      7.195429
     269           0      1568.088867   1395.480957  -33500.00000      9.265075
     270           0      1568.088867   1395.480957  -33833.33593     11.292268
     271           0      1484.295898   1484.296265  -29166.66601      9.930713
     272           0      1484.295898   1484.296265  -29500.00000      9.197009
     273           0      1484.295898   1484.296265  -29833.33203      8.654096
     274           0      1484.295898   1484.296265  -30166.66601      7.620125
     275           0      1484.295898   1484.296265  -30500.00000      6.788988
     276           0      1484.295898   1484.296265  -30833.33593      5.707695
     277           0      1484.295898   1484.296265  -31166.66601      4.631325
     278           0      1484.295898   1484.296265  -31500.00000      3.480608
     279           0      1484.295898   1484.296265  -31833.33203      2.415556
     280           0      1484.295898   1484.296265  -32166.66796      1.854318
     281           0      1484.295898   1484.296265  -32500.00195      2.540524
     282           0      1484.295898   1484.296265  -32833.33593      3.899031
     283           0      1484.295898   1484.296265  -33166.66796      5.868632
     284           0      1484.295898   1484.296265  -33500.00000      7.571198
     285           0      1484.295898   1484.296265  -33833.33593      9.120619
     286           0      1395.480469   1568.089111  -29166.66601      9.075686
     287           0      1395.480469   1568.089111  -29500.00000      8.318930
     288           0      1395.480469   1568.089111  -29833.33203      7.719855
     289           0      1395.480469   1568.089111  -30166.66601      6.831002
     290           0      1395.480469   1568.089111  -30500.00000      6.132192
     291           0      1395.480469   1568.089111  -30833.33593      5.309565
     292           0      1395.480469   1568.089111  -31166.66601      4.535263
     293           0      1395.480469   1568.089111  -31500.00000      3.772135
     294           0      1395.480469   1568.089111  -31833.33203      3.144585
     295           0      1395.480469   1568.089111  -32166.66796      2.813659
     296           0      1395.480469   1568.089111  -32500.00195      2.996611
     297           0      1395.480469   1568.089111  -32833.33593      3.662421
     298           0      1395.480469   1568.089111  -33166.66796      4.814116
     299           0      1395.480469   1568.089111  -33500.00000      5.980954
     300           0      1395.480469   1568.089111  -33833.33593      6.898942
     301           0      1301.943237   1646.576172  -29166.66601      7.740733
     302           0      1301.943237   1646.576172  -29500.00000      7.063272
     303           0      1301.943237   1646.576172  -29833.33203      6.501398
     304           0      1301.943237   1646.576172  -30166.66601      5.855580
     305           0      1301.943237   1646.576172  -30500.00000      5.352161
     306           0      1301.943237   1646.576172  -30833.33593      4.829901
     307           0      1301.943237   1646.576172  -31166.66601      4.358903
     308           0      1301.943237   1646.576172  -31500.00000      3.927015
     309           0      1301.943237   1646.576172  -31833.33203      3.586414
     310           0      1301.943237   1646.576172  -32166.66796      3.396396
     311           0      1301.943237   1646.576172  -32500.00195      3.397796
     312           0      1301.943237   1646.576172  -32833.33593      3.632909
     313           0      1301.943237   1646.576172  -33166.66796      4.094784
     314           0      1301.943237   1646.576172  -33500.00000      4.705153
     315           0      1301.943237   1646.576172  -33833.33593      4.995361
     316           0      1204.000732   1719.491699  -29166.66601      6.516691
     317           0      1204.000732   1719.491699  -29500.00000      6.045283
     318           0      1204.000732   1719.491699  -29833.33203      5.583059
     319           0      1204.000732   1719.491699  -30166.66601      5.195562
     320           0      1204.000732   1719.491699  -30500.00000      4.881554
     321           0      1204.000732   1719.491699  -30833.33593      4.595867
     322           0      1204.000732   1719.491699  -31166.66601      4.336134
     323           0      1204.000732   1719.491699  -31500.00000      4.100001
     324           0      1204.000732   1719.491699  -31833.33203      3.895266
     325           0      1204.000732   1719.491699  -32166.66796      3.747753
     326           0      1204.000732   1719.491699  -32500.00195      3.644870
     327           0      1204.000732   1719.491699  -32833.33593      3.630079
     328           0      1204.000732   1719.491699  -33166.66796      3.653230
     329           0      1204.000732   1719.491699  -33500.00000      3.811307
     330           0      1204.000732   1719.491699  -33833.33593      3.614333
     331           0      1101.984131   1786.588989  -29166.66601      6.065573
     332           0      1101.984131   1786.588989  -29500.00000      5.844863
     333           0      1101.984131   1786.588989  -29833.33203      5.448702
     334           0      1101.984131   1786.588989  -30166.66601      5.178648
     335           0      1101.984131   1786.588989  -30500.00000      4.943230
     336           0      1101.984131   1786.588989  -30833.33593      4.725704
     337           0      1101.984131   1786.588989  -31166.66601      4.521103
     338           0      1101.984131   1786.588989  -31500.00000      4.320209
     339           0      1101.984131   1786.588989  -31833.33203      4.121961
     340           0      1101.984131   1786.588989  -32166.66796      3.938002
     341           0      1101.984131   1786.588989  -32500.00195      3.745796
     342           0      1101.984131   1786.588989  -32833.33593      3.578161
     343           0      1101.984131   1786.588989  -33166.66796      3.376539
     344           0      1101.984131   1786.588989  -33500.00000      3.251663
     345           0      1101.984131   1786.588989  -33833.33593      2.806956
     346           0       996.238892   1847.641113  -29166.66601      6.594931
     347           0       996.238892   1847.641113  -29500.00000      6.492683
     348           0       996.238892   1847.641113  -29833.33203      6.037863
     349           0       996.238892   1847.641113  -30166.66601      5.676293
     350           0       996.238892   1847.641113  -30500.00000      5.376068
     351           0       996.238892   1847.641113  -30833.33593      5.068677
     352           0       996.238892   1847.641113  -31166.66601      4.791737
     353           0       996.238892   1847.641113  -31500.00000      4.514832
     354           0       996.238892   1847.641113  -31833.33203      4.244991
     355           0       996.238892   1847.641113  -32166.66796      3.983148
     356           0       996.238892   1847.641113  -32500.00195      3.711227
     357           0       996.238892   1847.641113  -32833.33593      3.451261
     358           0       996.238892   1847.641113  -33166.66796      3.161594
     359           0       996.238892   1847.641113  -33500.00000      2.914148
     360           0       996.238892   1847.641113  -33833.33593      2.459949
     361           0       887.122559   1902.441284  -29166.66601      7.646602
     362           0       887.122559   1902.441284  -29500.00000      7.509087
     363           0       887.122559   1902.441284  -29833.33203      6.899122
     364           0       887.122559   1902.441284  -30166.66601      6.333696
     365           0       887.122559   1902.441284  -30500.00000      5.886891
     366           0       887.122559   1902.441284  -30833.33593      5.416641
     367           0       887.122559   1902.441284  -31166.66601      5.007610
     368           0       887.122559   1902.441284  -31500.00000      4.607799
     369           0       887.122559   1902.441284  -31833.33203      4.236405
     370           0       887.122559   1902.441284  -32166.66796      3.887545
     371           0       887.122559   1902.441284  -32500.00195      3.551997
     372           0       887.122559   1902.441284  -32833.33593      3.245015
     373           0       887.122559   1902.441284  -33166.66796      2.945913
     374           0       887.122559   1902.441284  -33500.00000      2.688504
     375           0       887.122559   1902.441284  -33833.33593      2.361225
     376           0       775.004578   1950.804199  -29166.66601      8.713687
     377           0       775.004578   1950.804199  -29500.00000      8.480638
     378           0       775.004578   1950.804199  -29833.33203      7.689135
     379           0       775.004578   1950.804199  -30166.66601      6.907973
     380           0       775.004578   1950.804199  -30500.00000      6.294989
     381           0       775.004578   1950.804199  -30833.33593      5.653173
     382           0       775.004578   1950.804199  -31166.66601      5.100019
     383           0       775.004578   1950.804199  -31500.00000      4.571273
     384           0       775.004578   1950.804199  -31833.33203      4.096571
     385           0       775.004578   1950.804199  -32166.66796      3.668497
     386           0       775.004578   1950.804199  -32500.00195      3.287701
     387           0       775.004578   1950.804199  -32833.33593      2.967880
     388           0       775.004578   1950.804199  -33166.66796      2.704049
     389           0       775.004578   1950.804199  -33500.00000      2.503494
     390           0       775.004578   1950.804199  -33833.33593      2.345039
     391           0       660.264221   1992.566406  -29166.66601      9.541547
     392           0       660.264221   1992.566406  -29500.00000      9.220738
     393           0       660.264221   1992.566406  -29833.33203      8.266542
     394           0       660.264221   1992.566406  -30166.66601      7.308252
     395           0       660.264221   1992.566406  -30500.00000      6.544205
     396           0       660.264221   1992.566406  -30833.33593      5.753763
     397           0       660.264221   1992.566406  -31166.66601      5.068233
     398           0       660.264221   1992.566406  -31500.00000      4.423026
     399           0       660.264221   1992.566406  -31833.33203      3.854042
     400           0       660.264221   1992.566406  -32166.66796      3.357820
     401           0       660.264221   1992.566406  -32500.00195      2.945549
     402           0       660.264221   1992.566406  -32833.33593      2.635241
     403           0       660.264221   1992.566406  -33166.66796      2.432806
     404           0       660.264221   1992.566406  -33500.00000      2.325966
     405           0       660.264221   1992.566406  -33833.33593      2.338502
     406           0       543.289673   2027.586182  -29166.66601     10.064519
     407           0       543.289673   2027.586182  -29500.00000      9.691133
     408           0       543.289673   2027.586182  -29833.33203      8.612762
     409           0       543.289673   2027.586182  -30166.66601      7.532694
     410           0       543.289673   2027.586182  -30500.00000      6.648402
     411           0       543.289673   2027.586182  -30833.33593      5.744469
     412           0       543.289673   2027.586182  -31166.66601      4.948514
     413           0       543.289673   2027.586182  -31500.00000      4.205383
     414           0       543.289673   2027.586182  -31833.33203      3.552301
     415           0       543.289673   2027.586182  -32166.66796      2.994316
     416           0       543.289673   2027.586182  -32500.00195      2.555049
     417           0       543.289673   2027.586182  -32833.33593      2.264781
     418           0       543.289673   2027.586182  -33166.66796      2.139994
     419           0       543.289673   2027.586182  -33500.00000      2.147412
     420           0       543.289673   2027.586182  -33833.33593      2.323354
     421           0       424.476898   2055.745361  -29166.66601     10.317957
     422           0       424.476898   2055.745361  -29500.00000      9.929113
     423           0       424.476898   2055.745361  -29833.33203      8.767911
     424           0       424.476898   2055.745361  -30166.66601      7.618970
     425           0       424.476898   2055.745361  -30500.00000      6.649085
     426           0       424.476898   2055.745361  -30833.33593      5.668044
     427           0       424.476898   2055.745361  -31166.66601      4.786768
     428           0       424.476898   2055.745361  -31500.00000      3.965161
     429           0       424.476898   2055.745361  -31833.33203      3.236475
     430           0       424.476898   2055.745361  -32166.66796      2.616511
     431           0       424.476898   2055.745361  -32500.00195      2.143984
     432           0       424.476898   2055.745361  -32833.33593      1.873911
     433           0       424.476898   2055.745361  -33166.66796      1.839114
     434           0       424.476898   2055.745361  -33500.00000      1.972856
     435           0       424.476898   2055.745361  -33833.33593      2.301627
     436           0       304.227783   2076.948730  -29166.66601     10.382353
     437           0       304.227783   2076.948730  -29500.00000     10.003348
     438           0       304.227783   2076.948730  -29833.33203      8.794246
     439           0       304.227783   2076.948730  -30166.66601      7.616251
     440           0       304.227783   2076.948730  -30500.00000      6.592091
     441           0       304.227783   2076.948730  -30833.33593      5.565011
     442           0       304.227783   2076.948730  -31166.66601      4.623047
     443           0       304.227783   2076.948730  -31500.00000      3.742051
     444           0       304.227783   2076.948730  -31833.33203      2.946648
     445           0       304.227783   2076.948730  -32166.66796      2.261541
     446           0       304.227783   2076.948730  -32500.00195      1.740789
     447           0       304.227783   2076.948730  -32833.33593      1.482816
     448           0       304.227783   2076.948730  -33166.66796      1.550658
     449           0       304.227783   2076.948730  -33500.00000      1.815784
     450           0       304.227783   2076.948730  -33833.33593      2.280176
     451           0       182.949219   2091.124023  -29166.66601     10.346808
     452           0       182.949219   2091.124023  -29500.00000      9.986598
     453           0       182.949219   2091.124023  -29833.33203      8.754403
     454           0       182.949219   2091.124023  -30166.66601      7.570333
     455           0       182.949219   2091.124023  -30500.00000      6.516477
     456           0       182.949219   2091.124023  -30833.33593      5.466032
     457           0       182.949219   2091.124023  -31166.66601      4.485972
     458           0       182.949219   2091.124023  -31500.00000      3.564705
     459           0       182.949219   2091.124023  -31833.33203      2.716501
     460           0       182.949219   2091.124023  -32166.66796      1.969022
     461           0       182.949219   2091.124023  -32500.00195      1.384907
     462           0       182.949219   2091.124023  -32833.33593      1.125693
     463           0       182.949219   2091.124023  -33166.66796      1.307937
     464           0       182.949219   2091.124023  -33500.00000      1.695378
     465           0       182.949219   2091.124023  -33833.33593      2.265129
     466           0        61.051674   2098.223633  -29166.66601     10.284142
     467           0        61.051674   2098.223633  -29500.00000      9.936690
     468           0        61.051674   2098.223633  -29833.33203      8.696879
     469           0        61.051674   2098.223633  -30166.66601      7.514836
     470           0        61.051674   2098.223633  -30500.00000      6.449002
     471           0        61.051674   2098.223633  -30833.33593      5.389893
     472           0        61.051674   2098.223633  -31166.66601      4.392020
     473           0        61.051674   2098.223633  -31500.00000      3.450408
     474           0        61.051674   2098.223633  -31833.33203      2.571931
     475           0        61.051674   2098.223633  -32166.66796      1.782360
     476           0        61.051674   2098.223633  -32500.00195      1.142250
     477           0        61.051674   2098.223633  -32833.33593      0.874195
     478           0        61.051674   2098.223633  -33166.66796      1.159791
     479           0        61.051674   2098.223633  -33500.00000      1.630557
     480           0        61.051674   2098.223633  -33833.33593      2.260205
     481           0       -61.052467   2098.223633  -29166.66601     10.234789
     482           0       -61.052467   2098.223633  -29500.00000      9.885501
     483           0       -61.052467   2098.223633  -29833.33203      8.647901
     484           0       -61.052467   2098.223633  -30166.66601      7.467577
     485           0       -61.052467   2098.223633  -30500.00000      6.403254
     486           0       -61.052467   2098.223633  -30833.33593      5.345600
     487           0       -61.052467   2098.223633  -31166.66601      4.348906
     488           0       -61.052467   2098.223633  -31500.00000      3.408118
     489           0       -61.052467   2098.223633  -31833.33203      2.529832
     490           0       -61.052467   2098.223633  -32166.66796      1.739574
     491           0       -61.052467   2098.223633  -32500.00195      1.099027
     492           0       -61.052467   2098.223633  -32833.33593      0.843052
     493           0       -61.052467   2098.223633  -33166.66796      1.152307
     494           0       -61.052467   2098.223633  -33500.00000      1.632508
     495           0       -61.052467   2098.223633  -33833.33593      2.266394
     496           0      -182.950089   2091.124023  -29166.66601     10.199375
     497           0      -182.950089   2091.124023  -29500.00000      9.833688
     498           0      -182.950089   2091.124023  -29833.33203      8.608266
     499           0      -182.950089   2091.124023  -30166.66601      7.429534
     500           0      -182.950089   2091.124023  -30500.00000      6.380475
     501           0      -182.950089   2091.124023  -30833.33593      5.334771
     502           0      -182.950089   2091.124023  -31166.66601      4.358855
     503           0      -182.950089   2091.124023  -31500.00000      3.441111
     504           0      -182.950089   2091.124023  -31833.33203      2.595560
     505           0      -182.950089   2091.124023  -32166.66796      1.850604
     506           0      -182.950089   2091.124023  -32500.00195      1.274747
     507           0      -182.950089   2091.124023  -32833.33593      1.049952
     508           0      -182.950089   2091.124023  -33166.66796      1.285569
     509           0      -182.950089   2091.124023  -33500.00000      1.698769
     510           0      -182.950089   2091.124023  -33833.33593      2.281731
     511           0      -304.228607   2076.948730  -29166.66601     10.138734
     512           0      -304.228607   2076.948730  -29500.00000      9.750770
     513           0      -304.228607   2076.948730  -29833.33203      8.553392
     514           0      -304.228607   2076.948730  -30166.66601      7.384872
     515           0      -304.228607   2076.948730  -30500.00000      6.369509
     516           0      -304.228607   2076.948730  -30833.33593      5.351490
     517           0      -304.228607   2076.948730  -31166.66601      4.418200
     518           0      -304.228607   2076.948730  -31500.00000      3.545947
     519           0      -304.228607   2076.948730  -31833.33203      2.759954
     520           0      -304.228607   2076.948730  -32166.66796      2.087739
     521           0      -304.228607   2076.948730  -32500.00195      1.591555
     522           0      -304.228607   2076.948730  -32833.33593      1.381580
     523           0      -304.228607   2076.948730  -33166.66796      1.512312
     524           0      -304.228607   2076.948730  -33500.00000      1.814103
     525           0      -304.228607   2076.948730  -33833.33593      2.301515
     526           0      -424.477692   2055.745361  -29166.66601      9.981418
     527           0      -424.477692   2055.745361  -29500.00000      9.580519
     528           0      -424.477692   2055.745361  -29833.33203      8.436517
     529           0      -424.477692   2055.745361  -30166.66601      7.302009
     530           0      -424.477692   2055.745361  -30500.00000      6.345864
     531           0      -424.477692   2055.745361  -30833.33593      5.379590
     532           0      -424.477692   2055.745361  -31166.66601      4.513330
     533           0      -424.477692   2055.745361  -31500.00000      3.708198
     534           0      -424.477692   2055.745361  -31833.33203      2.998685
     535           0      -424.477692   2055.745361  -32166.66796      2.404148
     536           0      -424.477692   2055.745361  -32500.00195      1.969287
     537           0      -424.477692   2055.745361  -32833.33593      1.752280
     538           0      -424.477692   2055.745361  -33166.66796      1.781225
     539           0      -424.477692   2055.745361  -33500.00000      1.957066
     540           0      -424.477692   2055.745361  -33833.33593      2.318829
     541           0      -543.290527   2027.586182  -29166.66601      9.640212
     542           0      -543.290527   2027.586182  -29500.00000      9.252325
     543           0      -543.290527   2027.586182  -29833.33203      8.197168
     544           0      -543.290527   2027.586182  -30166.66601      7.137448
     545           0      -543.290527   2027.586182  -30500.00000      6.272641
     546           0      -543.290527   2027.586182  -30833.33593      5.390408
     547           0      -543.290527   2027.586182  -31166.66601      4.616948
     548           0      -543.290527   2027.586182  -31500.00000      3.899122
     549           0      -543.290527   2027.586182  -31833.33203      3.274998
     550           0      -543.290527   2027.586182  -32166.66796      2.752425
     551           0      -543.290527   2027.586182  -32500.00195      2.357917
     552           0      -543.290527   2027.586182  -32833.33593      2.120392
     553           0      -543.290527   2027.586182  -33166.66796      2.056495
     554           0      -543.290527   2027.586182  -33500.00000      2.106761
     555           0      -543.290527   2027.586182  -33833.33593      2.324726
     556           0      -660.265015   1992.566284  -29166.66601      9.038249
     557           0      -660.265015   1992.566284  -29500.00000      8.701426
     558           0      -660.265015   1992.566284  -29833.33203      7.776714
     559           0      -660.265015   1992.566284  -30166.66601      6.845419
     560           0      -660.265015   1992.566284  -30500.00000      6.106804
     561           0      -660.265015   1992.566284  -30833.33593      5.345371
     562           0      -660.265015   1992.566284  -31166.66601      4.689510
     563           0      -660.265015   1992.566284  -31500.00000      4.077418
     564           0      -660.265015   1992.566284  -31833.33203      3.544616
     565           0      -660.265015   1992.566284  -32166.66796      3.089235
     566           0      -660.265015   1992.566284  -32500.00195      2.723576
     567           0      -660.265015   1992.566284  -32833.33593      2.462020
     568           0      -660.265015   1992.566284  -33166.66796      2.315292
     569           0      -660.265015   1992.566284  -33500.00000      2.247976
     570           0      -660.265015   1992.566284  -33833.33593      2.309314
     571           0      -775.005371   1950.804199  -29166.66601      8.148516
     572           0      -775.005371   1950.804199  -29500.00000      7.898568
     573           0      -775.005371   1950.804199  -29833.33203      7.142169
     574           0      -775.005371   1950.804199  -30166.66601      6.394356
     575           0      -775.005371   1950.804199  -30500.00000      5.811576
     576           0      -775.005371   1950.804199  -30833.33593      5.204639
     577           0      -775.005371   1950.804199  -31166.66601      4.685913
     578           0      -775.005371   1950.804199  -31500.00000      4.194721
     579           0      -775.005371   1950.804199  -31833.33203      3.759064
     580           0      -775.005371   1950.804199  -32166.66796      3.372029
     581           0      -775.005371   1950.804199  -32500.00195      3.035286
     582           0      -775.005371   1950.804199  -32833.33593      2.757119
     583           0      -775.005371   1950.804199  -33166.66796      2.541460
     584           0      -775.005371   1950.804199  -33500.00000      2.373293
     585           0      -775.005371   1950.804199  -33833.33593      2.266301
     586           0      -887.123413   1902.441162  -29166.66601      7.058735
     587           0      -887.123413   1902.441162  -29500.00000      6.901801
     588           0      -887.123413   1902.441162  -29833.33203      6.329223
     589           0      -887.123413   1902.441162  -30166.66601      5.799965
     590           0      -887.123413   1902.441162  -30500.00000      5.383849
     591           0      -887.123413   1902.441162  -30833.33593      4.949394
     592           0      -887.123413   1902.441162  -31166.66601      4.573939
     593           0      -887.123413   1902.441162  -31500.00000      4.209852
     594           0      -887.123413   1902.441162  -31833.33203      3.874140
     595           0      -887.123413   1902.441162  -32166.66796      3.560484
     596           0      -887.123413   1902.441162  -32500.00195      3.261897
     597           0      -887.123413   1902.441162  -32833.33593      2.986319
     598           0      -887.123413   1902.441162  -33166.66796      2.724904
     599           0      -887.123413   1902.441162  -33500.00000      2.489331
     600           0      -887.123413   1902.441162  -33833.33593      2.208648
     601           0      -996.239624   1847.640869  -29166.66601      6.078163
     602           0      -996.239624   1847.640869  -29500.00000      5.945803
     603           0      -996.239624   1847.640869  -29833.33203      5.520374
     604           0      -996.239624   1847.640869  -30166.66601      5.184671
     605           0      -996.239624   1847.640869  -30500.00000      4.904305
     606           0      -996.239624   1847.640869  -30833.33593      4.621265
     607           0      -996.239624   1847.640869  -31166.66601      4.365667
     608           0      -996.239624   1847.640869  -31500.00000      4.111491
     609           0      -996.239624   1847.640869  -31833.33203      3.864398
     610           0      -996.239624   1847.640869  -32166.66796      3.623690
     611           0      -996.239624   1847.640869  -32500.00195      3.375829
     612           0      -996.239624   1847.640869  -32833.33593      3.133517
     613           0      -996.239624   1847.640869  -33166.66796      2.868100
     614           0      -996.239624   1847.640869  -33500.00000      2.631450
     615           0      -996.239624   1847.640869  -33833.33593      2.210277
     616           0     -1101.984863   1786.588867  -29166.66601      5.788204
     617           0     -1101.984863   1786.588867  -29500.00000      5.520309
     618           0     -1101.984863   1786.588867  -29833.33203      5.127238
     619           0     -1101.984863   1786.588867  -30166.66601      4.843721
     620           0     -1101.984863   1786.588867  -30500.00000      4.596600
     621           0     -1101.984863   1786.588867  -30833.33593      4.367960
     622           0     -1101.984863   1786.588867  -31166.66601      4.152510
     623           0     -1101.984863   1786.588867  -31500.00000      3.942185
     624           0     -1101.984863   1786.588867  -31833.33203      3.738179
     625           0     -1101.984863   1786.588867  -32166.66796      3.548571
     626           0     -1101.984863   1786.588867  -32500.00195      3.359071
     627           0     -1101.984863   1786.588867  -32833.33593      3.192219
     628           0     -1101.984863   1786.588867  -33166.66796      3.001345
     629           0     -1101.984863   1786.588867  -33500.00000      2.885144
     630           0     -1101.984863   1786.588867  -33833.33593      2.466652
     631           0     -1204.001465   1719.491333  -29166.66601      6.579787
     632           0     -1204.001465   1719.491333  -29500.00000      6.073722
     633           0     -1204.001465   1719.491333  -29833.33203      5.588209
     634           0     -1204.001465   1719.491333  -30166.66601      5.138448
     635           0     -1204.001465   1719.491333  -30500.00000      4.773116
     636           0     -1204.001465   1719.491333  -30833.33593      4.422924
     637           0     -1204.001465   1719.491333  -31166.66601      4.101292
     638           0     -1204.001465   1719.491333  -31500.00000      3.800640
     639           0     -1204.001465   1719.491333  -31833.33203      3.538735
     640           0     -1204.001465   1719.491333  -32166.66796      3.338516
     641           0     -1204.001465   1719.491333  -32500.00195      3.203351
     642           0     -1204.001465   1719.491333  -32833.33593      3.171199
     643           0     -1204.001465   1719.491333  -33166.66796      3.200855
     644           0     -1204.001465   1719.491333  -33500.00000      3.383511
     645           0     -1204.001465   1719.491333  -33833.33593      3.234753
     646           0     -1301.944092   1646.575928  -29166.66601      8.071355
     647           0     -1301.944092   1646.575928  -29500.00000      7.395377
     648           0     -1301.944092   1646.575928  -29833.33203      6.803799
     649           0     -1301.944092   1646.575928  -30166.66601      6.083883
     650           0     -1301.944092   1646.575928  -30500.00000      5.517158
     651           0     -1301.944092   1646.575928  -30833.33593      4.901088
     652           0     -1301.944092   1646.575928  -31166.66601      4.330093
     653           0     -1301.944092   1646.575928  -31500.00000      3.776962
     654           0     -1301.944092   1646.575928  -31833.33203      3.309016
     655           0     -1301.944092   1646.575928  -32166.66796      2.990607
     656           0     -1301.944092   1646.575928  -32500.00195      2.904113
     657           0     -1301.944092   1646.575928  -32833.33593      3.110201
     658           0     -1301.944092   1646.575928  -33166.66796      3.596503
     659           0     -1301.944092   1646.575928  -33500.00000      4.257606
     660           0     -1301.944092   1646.575928  -33833.33593      4.623493
     661           0     -1395.481201   1568.088745  -29166.66601      9.563947
     662           0     -1395.481201   1568.088745  -29500.00000      8.837076
     663           0     -1395.481201   1568.088745  -29833.33203      8.211100
     664           0     -1395.481201   1568.088745  -30166.66601      7.261777
     665           0     -1395.481201   1568.088745  -30500.00000      6.512519
     666           0     -1395.481201   1568.088745  -30833.33593      5.605241
     667           0     -1395.481201   1568.088745  -31166.66601      4.731130
     668           0     -1395.481201   1568.088745  -31500.00000      3.826163
     669           0     -1395.481201   1568.088745  -31833.33203      3.009354
     670           0     -1395.481201   1568.088745  -32166.66796      2.440023
     671           0     -1395.481201   1568.088745  -32500.00195      2.456451
     672           0     -1395.481201   1568.088745  -32833.33593      3.111771
     673           0     -1395.481201   1568.088745  -33166.66796      4.324113
     674           0     -1395.481201   1568.088745  -33500.00000      5.554110
     675           0     -1395.481201   1568.088745  -33833.33593      6.555816
     676           0     -1484.296631   1484.295654  -29166.66601     10.497307
     677           0     -1484.296631   1484.295654  -29500.00000      9.811026
     678           0     -1484.296631   1484.295654  -29833.33203      9.247994
     679           0     -1484.296631   1484.295654  -30166.66601      8.172584
     680           0     -1484.296631   1484.295654  -30500.00000      7.313526
     681           0     -1484.296631   1484.295654  -30833.33593      6.177487
     682           0     -1484.296631   1484.295654  -31166.66601      5.033162
     683           0     -1484.296631   1484.295654  -31500.00000      3.772988
     684           0     -1484.296631   1484.295654  -31833.33203      2.510366
     685           0     -1484.296631   1484.295654  -32166.66796      1.541489
     686           0     -1484.296631   1484.295654  -32500.00195      1.984239
     687           0     -1484.296631   1484.295654  -32833.33593      3.396185
     688           0     -1484.296631   1484.295654  -33166.66796      5.434344
     689           0     -1484.296631   1484.295654  -33500.00000      7.189407
     690           0     -1484.296631   1484.295654  -33833.33593      8.814473
     691           0     -1568.089478   1395.480347  -29166.66601     10.492344
     692           0     -1568.089478   1395.480347  -29500.00000      9.894548
     693           0     -1568.089478   1395.480347  -29833.33203      9.497474
     694           0     -1568.089478   1395.480347  -30166.66601      8.441006
     695           0     -1568.089478   1395.480347  -30500.00000      7.591953
     696           0     -1568.089478   1395.480347  -30833.33593      6.362057
     697           0     -1568.089478   1395.480347  -31166.66601      5.059604
     698           0     -1568.089478   1395.480347  -31500.00000      3.556192
     699           0     -1568.089478   1395.480347  -31833.33203      1.889732
     700           0     -1568.089478   1395.480347  -32166.66796      0.466669
     701           0     -1568.089478   1395.480347  -32500.00195      2.198012
     702           0     -1568.089478   1395.480347  -32833.33593      4.227791
     703           0     -1568.089478   1395.480347  -33166.66796      6.841214
     704           0     -1568.089478   1395.480347  -33500.00000      8.942050
     705           0     -1568.089478   1395.480347  -33833.33593     11.031246
     706           0     -1646.576416   1301.943115  -29166.66601      9.348369
     707           0     -1646.576416   1301.943115  -29500.00000      8.860846
     708           0     -1646.576416   1301.943115  -29833.33203      8.760350
     709           0     -1646.576416   1301.943115  -30166.66601      7.962308
     710           0     -1646.576416   1301.943115  -30500.00000      7.354582
     711           0     -1646.576416   1301.943115  -30833.33593      6.315458
     712           0     -1646.576416   1301.943115  -31166.66601      5.146963
     713           0     -1646.576416   1301.943115  -31500.00000      3.817254
     714           0     -1646.576416   1301.943115  -31833.33203      2.564126
     715           0     -1646.576416   1301.943115  -32166.66796      2.355765
     716           0     -1646.576416   1301.943115  -32500.00195      3.749460
     717           0     -1646.576416   1301.943115  -32833.33593      5.641328
     718           0     -1646.576416   1301.943115  -33166.66796      8.308916
     719           0     -1646.576416   1301.943115  -33500.00000     10.447031
     720           0     -1646.576416   1301.943115  -33833.33593     12.679028
     721           0     -1719.492065   1204.000610  -29166.66601      7.098979
     722           0     -1719.492065   1204.000610  -29500.00000      6.815450
     723           0     -1719.492065   1204.000610  -29833.33203      7.260145
     724           0     -1719.492065   1204.000610  -30166.66601      7.191515
     725           0     -1719.492065   1204.000610  -30500.00000      7.272973
     726           0     -1719.492065   1204.000610  -30833.33593      6.951696
     727           0     -1719.492065   1204.000610  -31166.66601      6.437230
     728           0     -1719.492065   1204.000610  -31500.00000      5.809200
     729           0     -1719.492065   1204.000610  -31833.33203      5.303442
     730           0     -1719.492065   1204.000610  -32166.66796      5.330750
     731           0     -1719.492065   1204.000610  -32500.00195      6.117817
     732           0     -1719.492065   1204.000610  -32833.33593      7.331551
     733           0     -1719.492065   1204.000610  -33166.66796      9.447666
     734           0     -1719.492065   1204.000610  -33500.00000     11.215111
     735           0     -1719.492065   1204.000610  -33833.33593     13.132091
     736           0     -1786.589355   1101.984009  -29166.66601      4.394507
     737           0     -1786.589355   1101.984009  -29500.00000      4.896278
     738           0     -1786.589355   1101.984009  -29833.33203      6.259696
     739           0     -1786.589355   1101.984009  -30166.66601      7.499533
     740           0     -1786.589355   1101.984009  -30500.00000      8.601192
     741           0     -1786.589355   1101.984009  -30833.33593      9.300173
     742           0     -1786.589355   1101.984009  -31166.66601      9.594970
     743           0     -1786.589355   1101.984009  -31500.00000      9.504901
     744           0     -1786.589355   1101.984009  -31833.33203      9.145135
     745           0     -1786.589355   1101.984009  -32166.66796      8.742276
     746           0     -1786.589355   1101.984009  -32500.00195      8.630210
     747           0     -1786.589355   1101.984009  -32833.33593      8.756756
     748           0     -1786.589355   1101.984009  -33166.66796      9.754558
     749           0     -1786.589355   1101.984009  -33500.00000     10.722530
     750           0     -1786.589355   1101.984009  -33833.33593     11.823854
     751           0     -1847.641357    996.238708  -29166.66601      4.722604
     752           0     -1847.641357    996.238708  -29500.00000      6.520566
     753           0     -1847.641357    996.238708  -29833.33203      8.117703
     754           0     -1847.641357    996.238708  -30166.66601     10.130373
     755           0     -1847.641357    996.238708  -30500.00000     11.790779
     756           0     -1847.641357    996.238708  -30833.33593     13.165812
     757           0     -1847.641357    996.238708  -31166.66601     13.971963
     758           0     -1847.641357    996.238708  -31500.00000     14.026660
     759           0     -1847.641357    996.238708  -31833.33203     13.306328
     760           0     -1847.641357    996.238708  -32166.66796     11.981506
     761           0     -1847.641357    996.238708  -32500.00195     10.584568
     762           0     -1847.641357    996.238708  -32833.33593      9.275769
     763           0     -1847.641357    996.238708  -33166.66796      8.733315
     764           0     -1847.641357    996.238708  -33500.00000      8.613223
     765           0     -1847.641357    996.238708  -33833.33593      8.596555
     766           0     -1902.441650    887.122437  -29166.66601      9.518222
     767           0     -1902.441650    887.122437  -29500.00000     11.612824
     768           0     -1902.441650    887.122437  -29833.33203     12.765651
     769           0     -1902.441650    887.122437  -30166.66601     14.630938
     770           0     -1902.441650    887.122437  -30500.00000     16.205904
     771           0     -1902.441650    887.122437  -30833.33593     17.718546
     772           0     -1902.441650    887.122437  -31166.66601     18.579611
     773           0     -1902.441650    887.122437  -31500.00000     18.373850
     774           0     -1902.441650    887.122437  -31833.33203     16.907372
     775           0     -1902.441650    887.122437  -32166.66796     14.327917
     776           0     -1902.441650    887.122437  -32500.00195     11.327963
     777           0     -1902.441650    887.122437  -32833.33593      8.346304
     778           0     -1902.441650    887.122437  -33166.66796      6.139896
     779           0     -1902.441650    887.122437  -33500.00000      5.308092
     780           0     -1902.441650    887.122437  -33833.33593      5.429846
     781           0     -1950.804565    775.004395  -29166.66601     16.011642
     782           0     -1950.804565    775.004395  -29500.00000     18.142220
     783           0     -1950.804565    775.004395  -29833.33203     18.834240
     784           0     -1950.804565    775.004395  -30166.66601     20.192965
     785           0     -1950.804565    775.004395  -30500.00000     21.287632
     786           0     -1950.804565    775.004395  -30833.33593     22.414236
     787           0     -1950.804565    775.004395  -31166.66601     22.727118
     788           0     -1950.804565    775.004395  -31500.00000     21.782291
     789           0     -1950.804565    775.004395  -31833.33203     19.290607
     790           0     -1950.804565    775.004395  -32166.66796     15.403305
     791           0     -1950.804565    775.004395  -32500.00195     10.703206
     792           0     -1950.804565    775.004395  -32833.33593      5.994500
     793           0     -1950.804565    775.004395  -33166.66796      3.189599
     794           0     -1950.804565    775.004395  -33500.00000      5.407339
     795           0     -1950.804565    775.004395  -33833.33593      9.474457
     796           0     -1992.566650    660.264038  -29166.66601     23.564621
     797           0     -1992.566650    660.264038  -29500.00000     25.457535
     798           0     -1992.566650    660.264038  -29833.33203     25.657379
     799           0     -1992.566650    660.264038  -30166.66601     26.390375
     800           0     -1992.566650    660.264038  -30500.00000     26.885786
     801           0     -1992.566650    660.264038  -30833.33593     27.296944
     802           0     -1992.566650    660.264038  -31166.66601     26.593632
     803           0     -1992.566650    660.264038  -31500.00000     24.579840
     804           0     -1992.566650    660.264038  -31833.33203     20.967327
     805           0     -1992.566650    660.264038  -32166.66796     16.044836
     806           0     -1992.566650    660.264038  -32500.00195     10.043157
     807           0     -1992.566650    660.264038  -32833.33593      4.821798
     808           0     -1992.566650    660.264038  -33166.66796      6.348149
     809           0     -1992.566650    660.264038  -33500.00000     11.359254
     810           0     -1992.566650    660.264038  -33833.33593     17.665730
     811           0     -2027.586426    543.289490  -29166.66601     32.138428
     812           0     -2027.586426    543.289490  -29500.00000     33.368439
     813           0     -2027.586426    543.289490  -29833.33203     32.968090
     814           0     -2027.586426    543.289490  -30166.66601     33.031658
     815           0     -2027.586426    543.289490  -30500.00000     33.071766
     816           0     -2027.586426    543.289490  -30833.33593     32.890869
     817           0     -2027.586426    543.289490  -31166.66601     31.422876
     818           0     -2027.586426    543.289490  -31500.00000     28.722330
     819           0     -2027.586426    543.289490  -31833.33203     24.369183
     820           0     -2027.586426    543.289490  -32166.66796     18.923338
     821           0     -2027.586426    543.289490  -32500.00195     12.634993
     822           0     -2027.586426    543.289490  -32833.33593      9.131463
     823           0     -2027.586426    543.289490  -33166.66796     12.492205
     824           0     -2027.586426    543.289490  -33500.00000     18.176468
     825           0     -2027.586426    543.289490  -33833.33593     25.716364
     826           0     -2055.745605    424.476654  -29166.66601     41.836456
     827           0     -2055.745605    424.476654  -29500.00000     41.895214
     828           0     -2055.745605    424.476654  -29833.33203     40.733120
     829           0     -2055.745605    424.476654  -30166.66601     40.030151
     830           0     -2055.745605    424.476654  -30500.00000     39.809269
     831           0     -2055.745605    424.476654  -30833.33593     39.461224
     832           0     -2055.745605    424.476654  -31166.66601     38.050671
     833           0     -2055.745605    424.476654  -31500.00000     35.598518
     834           0     -2055.745605    424.476654  -31833.33203     31.343987
     835           0     -2055.745605    424.476654  -32166.66796     25.818083
     836           0     -2055.745605    424.476654  -32500.00195     19.297836
     837           0     -2055.745605    424.476654  -32833.33593     15.661978
     838           0     -2055.745605    424.476654  -33166.66796     18.197886
     839           0     -2055.745605    424.476654  -33500.00000     23.609829
     840           0     -2055.745605    424.476654  -33833.33593     31.443434
     841           0     -2076.948730    304.227539  -29166.66601     52.733200
     842           0     -2076.948730    304.227539  -29500.00000     51.177723
     843           0     -2076.948730    304.227539  -29833.33203     49.104012
     844           0     -2076.948730    304.227539  -30166.66601     47.274250
     845           0     -2076.948730    304.227539  -30500.00000     46.537766
     846           0     -2076.948730    304.227539  -30833.33593     45.880005
     847           0     -2076.948730    304.227539  -31166.66601     44.657135
     848           0     -2076.948730    304.227539  -31500.00000     42.825413
     849           0     -2076.948730    304.227539  -31833.33203     39.370354
     850           0     -2076.948730    304.227539  -32166.66796     34.405048
     851           0     -2076.948730    304.227539  -32500.00195     27.612894
     852           0     -2076.948730    304.227539  -32833.33593     22.215118
     853           0     -2076.948730    304.227539  -33166.66796     22.151464
     854           0     -2076.948730    304.227539  -33500.00000     26.267138
     855           0     -2076.948730    304.227539  -33833.33593     33.244232
     856           0     -2091.124023    182.948975  -29166.66601     64.695404
     857           0     -2091.124023    182.948975  -29500.00000     61.362919
     858           0     -2091.124023    182.948975  -29833.33203     58.201748
     859           0     -2091.124023    182.948975  -30166.66601     54.263813
     860           0     -2091.124023    182.948975  -30500.00000     51.567265
     861           0     -2091.124023    182.948975  -30833.33593     49.022472
     862           0     -2091.124023    182.948975  -31166.66601     46.871609
     863           0     -2091.124023    182.948975  -31500.00000     45.204365
     864           0     -2091.124023    182.948975  -31833.33203     42.967472
     865           0     -2091.124023    182.948975  -32166.66796     39.721943
     866           0     -2091.124023    182.948975  -32500.00195     34.324829
     867           0     -2091.124023    182.948975  -32833.33593     27.778343
     868           0     -2091.124023    182.948975  -33166.66796     24.036406
     869           0     -2091.124023    182.948975  -33500.00000     25.832659
     870           0     -2091.124023    182.948975  -33833.33593     30.587210
     871           0     -2098.223633     61.051418  -29166.66601     77.276917
     872           0     -2098.223633     61.051418  -29500.00000     72.336456
     873           0     -2098.223633     61.051418  -29833.33203     67.523315
     874           0     -2098.223633     61.051418  -30166.66601     59.294983
     875           0     -2098.223633     61.051418  -30500.00000     51.694614
     876           0     -2098.223633     61.051418  -30833.33593     44.996361
     877           0     -2098.223633     61.051418  -31166.66601     40.453594
     878           0     -2098.223633     61.051418  -31500.00000     38.208317
     879           0     -2098.223633     61.051418  -31833.33203     37.207150
     880           0     -2098.223633     61.051418  -32166.66796     36.427181
     881           0     -2098.223633     61.051418  -32500.00195     34.703091
     882           0     -2098.223633     61.051418  -32833.33593     30.360115
     883           0     -2098.223633     61.051418  -33166.66796     24.799246
     884           0     -2098.223633     61.051418  -33500.00000     24.267645
     885           0     -2098.223633     61.051418  -33833.33593     25.744171
     886           0     -2098.223633    -61.052704  -29166.66601     89.362991
     887           0     -2098.223633    -61.052704  -29500.00000     83.592926
     888           0     -2098.223633    -61.052704  -29833.33203     74.622803
     889           0     -2098.223633    -61.052704  -30166.66601     59.013786
     890           0     -2098.223633    -61.052704  -30500.00000     44.903248
     891           0     -2098.223633    -61.052704  -30833.33593     34.644718
     892           0     -2098.223633    -61.052704  -31166.66601     28.366417
     893           0     -2098.223633    -61.052704  -31500.00000     25.298574
     894           0     -2098.223633    -61.052704  -31833.33203     24.639437
     895           0     -2098.223633    -61.052704  -32166.66796     24.052574
     896           0     -2098.223633    -61.052704  -32500.00195     24.648684
     897           0     -2098.223633    -61.052704  -32833.33593     24.596094
     898           0     -2098.223633    -61.052704  -33166.66796     23.856419
     899           0     -2098.223633    -61.052704  -33500.00000     25.780388
     900           0     -2098.223633    -61.052704  -33833.33593     27.037550
     901           0     -2091.123779   -182.950317  -29166.66601    100.348587
     902           0     -2091.123779   -182.950317  -29500.00000     92.309875
     903           0     -2091.123779   -182.950317  -29833.33203     75.560806
     904           0     -2091.123779   -182.950317  -30166.66601     53.803207
     905           0     -2091.123779   -182.950317  -30500.00000     44.401867
     906           0     -2091.123779   -182.950317  -30833.33593     40.999695
     907           0     -2091.123779   -182.950317  -31166.66601     40.868309
     908           0     -2091.123779   -182.950317  -31500.00000     40.730862
     909           0     -2091.123779   -182.950317  -31833.33203     38.374470
     910           0     -2091.123779   -182.950317  -32166.66796     33.751579
     911           0     -2091.123779   -182.950317  -32500.00195     24.899179
     912           0     -2091.123779   -182.950317  -32833.33593     13.801521
     913           0     -2091.123779   -182.950317  -33166.66796     12.269917
     914           0     -2091.123779   -182.950317  -33500.00000     28.958693
     915           0     -2091.123779   -182.950317  -33833.33593     40.292297
     916           0     -2076.948242   -304.228821  -29166.66601    107.558937
     917           0     -2076.948242   -304.228821  -29500.00000     94.119034
     918           0     -2076.948242   -304.228821  -29833.33203     73.939598
     919           0     -2076.948242   -304.228821  -30166.66601     69.705994
     920           0     -2076.948242   -304.228821  -30500.00000     74.934654
     921           0     -2076.948242   -304.228821  -30833.33593     79.106155
     922           0     -2076.948242   -304.228821  -31166.66601     82.329544
     923           0     -2076.948242   -304.228821  -31500.00000     82.646286
     924           0     -2076.948242   -304.228821  -31833.33203     81.106209
     925           0     -2076.948242   -304.228821  -32166.66796     75.734283
     926           0     -2076.948242   -304.228821  -32500.00195     66.959381
     927           0     -2076.948242   -304.228821  -32833.33593     52.929543
     928           0     -2076.948242   -304.228821  -33166.66796     28.602873
     929           0     -2076.948242   -304.228821  -33500.00000     25.063194
     930           0     -2076.948242   -304.228821  -33833.33593     58.392075
     931           0     -2055.882568   -423.897186  -29166.66601    108.832565
     932           0     -2055.882568   -423.897186  -29500.00000     99.378845
     933           0     -2055.882568   -423.897186  -29833.33203    113.502403
     934           0     -2055.882568   -423.897186  -30166.66601    119.753151
     935           0     -2055.882568   -423.897186  -30500.00000    124.757195
     936           0     -2055.882568   -423.897186  -30833.33593    127.000839
     937           0     -2055.882568   -423.897186  -31166.66601    127.651985
     938           0     -2055.882568   -423.897186  -31500.00000    127.660194
     939           0     -2055.882568   -423.897186  -31833.33203    126.256172
     940           0     -2055.882568   -423.897186  -32166.66796    124.510231
     941           0     -2055.882568   -423.897186  -32500.00195    120.244354
     942           0     -2055.882568   -423.897186  -32833.33593    114.626854
     943           0     -2055.882568   -423.897186  -33166.66796    102.132195
     944           0     -2055.882568   -423.897186  -33500.00000     75.312920
     945           0     -2055.882568   -423.897186  -33833.33593     72.311218
     946           0     -2028.065186   -541.566406  -29166.66601    121.137901
     947           0     -2028.065186   -541.566406  -29500.00000    215.227905
     948           0     -2028.065186   -541.566406  -29833.33203    189.682892
     949           0     -2028.065186   -541.566406  -30166.66601    178.504242
     950           0     -2028.065186   -541.566406  -30500.00000    174.142349
     951           0     -2028.065186   -541.566406  -30833.33593    164.745956
     952           0     -2028.065186   -541.566406  -31166.66601    162.037216
     953           0     -2028.065186   -541.566406  -31500.00000    159.172287
     954           0     -2028.065186   -541.566406  -31833.33203    158.972443
     955           0     -2028.065186   -541.566406  -32166.66796    162.169342
     956           0     -2028.065186   -541.566406  -32500.00195    165.982330
     957           0     -2028.065186   -541.566406  -32833.33593    177.283966
     958           0     -2028.065186   -541.566406  -33166.66796    181.077179
     959           0     -2028.065186   -541.566406  -33500.00000    218.724335
     960           0     -2028.065186   -541.566406  -33833.33593    125.431129
     961           0     -1992.907837   -659.121582  -29166.66601    117.478294
     962           0     -1992.907837   -659.121582  -29500.00000    212.507675
     963           0     -1992.907837   -659.121582  -29833.33203    191.360550
     964           0     -1992.907837   -659.121582  -30166.66601    182.200668
     965           0     -1992.907837   -659.121582  -30500.00000    179.663986
     966           0     -1992.907837   -659.121582  -30833.33593    171.721710
     967           0     -1992.907837   -659.121582  -31166.66601    170.048569
     968           0     -1992.907837   -659.121582  -31500.00000    167.864792
     969           0     -1992.907837   -659.121582  -31833.33203    168.022125
     970           0     -1992.907837   -659.121582  -32166.66796    171.049194
     971           0     -1992.907837   -659.121582  -32500.00195    174.431610
     972           0     -1992.907837   -659.121582  -32833.33593    184.451996
     973           0     -1992.907837   -659.121582  -33166.66796    186.867416
     974           0     -1992.907837   -659.121582  -33500.00000    221.358063
     975           0     -1992.907837   -659.121582  -33833.33593    126.402153
     976           0     -1950.803955   -775.005493  -29166.66601    105.836029
     977           0     -1950.803955   -775.005493  -29500.00000     94.394150
     978           0     -1950.803955   -775.005493  -29833.33203    108.043922
     979           0     -1950.803955   -775.005493  -30166.66601    115.579689
     980           0     -1950.803955   -775.005493  -30500.00000    121.275894
     981           0     -1950.803955   -775.005493  -30833.33593    124.410233
     982           0     -1950.803955   -775.005493  -31166.66601    125.562775
     983           0     -1950.803955   -775.005493  -31500.00000    126.031868
     984           0     -1950.803955   -775.005493  -31833.33203    124.749710
     985           0     -1950.803955   -775.005493  -32166.66796    122.999222
     986           0     -1950.803955   -775.005493  -32500.00195    118.410110
     987           0     -1950.803955   -775.005493  -32833.33593    112.260933
     988           0     -1950.803955   -775.005493  -33166.66796     99.036797
     989           0     -1950.803955   -775.005493  -33500.00000     71.689598
     990           0     -1950.803955   -775.005493  -33833.33593     72.504036
     991           0     -1902.441040   -887.123535  -29166.66601    103.326729
     992           0     -1902.441040   -887.123535  -29500.00000     90.145065
     993           0     -1902.441040   -887.123535  -29833.33203     67.016785
     994           0     -1902.441040   -887.123535  -30166.66601     62.449474
     995           0     -1902.441040   -887.123535  -30500.00000     67.506271
     996           0     -1902.441040   -887.123535  -30833.33593     71.910164
     997           0     -1902.441040   -887.123535  -31166.66601     75.393761
     998           0     -1902.441040   -887.123535  -31500.00000     76.020355
     999           0     -1902.441040   -887.123535  -31833.33203     74.732567
    1000           0     -1902.441040   -887.123535  -32166.66796     69.603523
    1001           0     -1902.441040   -887.123535  -32500.00195     61.192585
    1002           0     -1902.441040   -887.123535  -32833.33593     47.395775
    1003           0     -1902.441040   -887.123535  -33166.66796     24.398750
    1004           0     -1902.441040   -887.123535  -33500.00000     25.523533
    1005           0     -1902.441040   -887.123535  -33833.33593     55.838169
    1006           0     -1847.640625   -996.239746  -29166.66601     94.316284
    1007           0     -1847.640625   -996.239746  -29500.00000     87.884186
    1008           0     -1847.640625   -996.239746  -29833.33203     69.820885
    1009           0     -1847.640625   -996.239746  -30166.66601     47.912331
    1010           0     -1847.640625   -996.239746  -30500.00000     37.466385
    1011           0     -1847.640625   -996.239746  -30833.33593     33.164230
    1012           0     -1847.640625   -996.239746  -31166.66601     32.989468
    1013           0     -1847.640625   -996.239746  -31500.00000     33.268448
    1014           0     -1847.640625   -996.239746  -31833.33203     31.461842
    1015           0     -1847.640625   -996.239746  -32166.66796     27.821890
    1016           0     -1847.640625   -996.239746  -32500.00195     20.392084
    1017           0     -1847.640625   -996.239746  -32833.33593     12.389011
    1018           0     -1847.640625   -996.239746  -33166.66796     15.310349
    1019           0     -1847.640625   -996.239746  -33500.00000     28.359409
    1020           0     -1847.640625   -996.239746  -33833.33593     36.518253
    1021           0     -1786.588501  -1101.985107  -29166.66601     81.808853
    1022           0     -1786.588501  -1101.985107  -29500.00000     78.367645
    1023           0     -1786.588501  -1101.985107  -29833.33203     68.989357
    1024           0     -1786.588501  -1101.985107  -30166.66601     54.636177
    1025           0     -1786.588501  -1101.985107  -30500.00000     41.347427
    1026           0     -1786.588501  -1101.985107  -30833.33593     31.573267
    1027           0     -1786.588501  -1101.985107  -31166.66601     25.822695
    1028           0     -1786.588501  -1101.985107  -31500.00000     23.513556
    1029           0     -1786.588501  -1101.985107  -31833.33203     23.811459
    1030           0     -1786.588501  -1101.985107  -32166.66796     24.440928
    1031           0     -1786.588501  -1101.985107  -32500.00195     25.928774
    1032           0     -1786.588501  -1101.985107  -32833.33593     26.192957
    1033           0     -1786.588501  -1101.985107  -33166.66796     23.975325
    1034           0     -1786.588501  -1101.985107  -33500.00000     23.777159
    1035           0     -1786.588501  -1101.985107  -33833.33593     24.089500
    1036           0     -1719.491211  -1204.001587  -29166.66601     68.939507
    1037           0     -1719.491211  -1204.001587  -29500.00000     66.391754
    1038           0     -1719.491211  -1204.001587  -29833.33203     61.730881
    1039           0     -1719.491211  -1204.001587  -30166.66601     54.868557
    1040           0     -1719.491211  -1204.001587  -30500.00000     48.548241
    1041           0     -1719.491211  -1204.001587  -30833.33593     43.053280
    1042           0     -1719.491211  -1204.001587  -31166.66601     39.600922
    1043           0     -1719.491211  -1204.001587  -31500.00000     38.039211
    1044           0     -1719.491211  -1204.001587  -31833.33203     37.393887
    1045           0     -1719.491211  -1204.001587  -32166.66796     36.676815
    1046           0     -1719.491211  -1204.001587  -32500.00195     34.670944
    1047           0     -1719.491211  -1204.001587  -32833.33593     29.683441
    1048           0     -1719.491211  -1204.001587  -33166.66796     23.043049
    1049           0     -1719.491211  -1204.001587  -33500.00000     22.138035
    1050           0     -1719.491211  -1204.001587  -33833.33593     24.816006
    1051           0     -1646.575562  -1301.944092  -29166.66601     56.315979
    1052           0     -1646.575562  -1301.944092  -29500.00000     55.100674
    1053           0     -1646.575562  -1301.944092  -29833.33203     52.363110
    1054           0     -1646.575562  -1301.944092  -30166.66601     49.609741
    1055           0     -1646.575562  -1301.944092  -30500.00000     47.799522
    1056           0     -1646.575562  -1301.944092  -30833.33593     46.097107
    1057           0     -1646.575562  -1301.944092  -31166.66601     44.704491
    1058           0     -1646.575562  -1301.944092  -31500.00000     43.458687
    1059           0     -1646.575562  -1301.944092  -31833.33203     41.386005
    1060           0     -1646.575562  -1301.944092  -32166.66796     38.050411
    1061           0     -1646.575562  -1301.944092  -32500.00195     32.315598
    1062           0     -1646.575562  -1301.944092  -32833.33593     25.286989
    1063           0     -1646.575562  -1301.944092  -33166.66796     21.542349
    1064           0     -1646.575562  -1301.944092  -33500.00000     24.004293
    1065           0     -1646.575562  -1301.944092  -33833.33593     30.092884
    1066           0     -1568.088623  -1395.481323  -29166.66601     44.912983
    1067           0     -1568.088623  -1395.481323  -29500.00000     45.037182
    1068           0     -1568.088623  -1395.481323  -29833.33203     43.440437
    1069           0     -1568.088623  -1395.481323  -30166.66601     42.582233
    1070           0     -1568.088623  -1395.481323  -30500.00000     42.379971
    1071           0     -1568.088623  -1395.481323  -30833.33593     42.089867
    1072           0     -1568.088623  -1395.481323  -31166.66601     41.231449
    1073           0     -1568.088623  -1395.481323  -31500.00000     39.594604
    1074           0     -1568.088623  -1395.481323  -31833.33203     36.229572
    1075           0     -1568.088623  -1395.481323  -32166.66796     31.200050
    1076           0     -1568.088623  -1395.481323  -32500.00195     24.213005
    1077           0     -1568.088623  -1395.481323  -32833.33593     18.751892
    1078           0     -1568.088623  -1395.481323  -33166.66796     19.569494
    1079           0     -1568.088623  -1395.481323  -33500.00000     24.488186
    1080           0     -1568.088623  -1395.481323  -33833.33593     32.278896
    1081           0     -1484.295532  -1484.296631  -29166.66601     34.986782
    1082           0     -1484.295532  -1484.296631  -29500.00000     36.269287
    1083           0     -1484.295532  -1484.296631  -29833.33203     35.496265
    1084           0     -1484.295532  -1484.296631  -30166.66601     35.563332
    1085           0     -1484.295532  -1484.296631  -30500.00000     35.746647
    1086           0     -1484.295532  -1484.296631  -30833.33593     35.532101
    1087           0     -1484.295532  -1484.296631  -31166.66601     34.223442
    1088           0     -1484.295532  -1484.296631  -31500.00000     31.800171
    1089           0     -1484.295532  -1484.296631  -31833.33203     27.579884
    1090           0     -1484.295532  -1484.296631  -32166.66796     21.996031
    1091           0     -1484.295532  -1484.296631  -32500.00195     15.332205
    1092           0     -1484.295532  -1484.296631  -32833.33593     11.945848
    1093           0     -1484.295532  -1484.296631  -33166.66796     15.834626
    1094           0     -1484.295532  -1484.296631  -33500.00000     21.858788
    1095           0     -1484.295532  -1484.296631  -33833.33593     29.993158
    1096           0     -1395.480103  -1568.089600  -29166.66601     26.507870
    1097           0     -1395.480103  -1568.089600  -29500.00000     28.556229
    1098           0     -1395.480103  -1568.089600  -29833.33203     28.418232
    1099           0     -1395.480103  -1568.089600  -30166.66601     29.057518
    1100           0     -1395.480103  -1568.089600  -30500.00000     29.514404
    1101           0     -1395.480103  -1568.089600  -30833.33593     29.515869
    1102           0     -1395.480103  -1568.089600  -31166.66601     28.160109
    1103           0     -1395.480103  -1568.089600  -31500.00000     25.496319
    1104           0     -1395.480103  -1568.089600  -31833.33203     21.212368
    1105           0     -1395.480103  -1568.089600  -32166.66796     15.745502
    1106           0     -1395.480103  -1568.089600  -32500.00195      9.250953
    1107           0     -1395.480103  -1568.089600  -32833.33593      5.728105
    1108           0     -1395.480103  -1568.089600  -33166.66796     10.709444
    1109           0     -1395.480103  -1568.089600  -33500.00000     16.736057
    1110           0     -1395.480103  -1568.089600  -33833.33593     24.161854
    1111           0     -1301.942871  -1646.576660  -29166.66601     19.273016
    1112           0     -1301.942871  -1646.576660  -29500.00000     21.668468
    1113           0     -1301.942871  -1646.576660  -29833.33203     22.027500
    1114           0     -1301.942871  -1646.576660  -30166.66601     23.154697
    1115           0     -1301.942871  -1646.576660  -30500.00000     24.077711
    1116           0     -1301.942871  -1646.576660  -30833.33593     24.791765
    1117           0     -1301.942871  -1646.576660  -31166.66601     24.350224
    1118           0     -1301.942871  -1646.576660  -31500.00000     22.522463
    1119           0     -1301.942871  -1646.576660  -31833.33203     19.129242
    1120           0     -1301.942871  -1646.576660  -32166.66796     14.420852
    1121           0     -1301.942871  -1646.576660  -32500.00195      8.724981
    1122           0     -1301.942871  -1646.576660  -32833.33593      3.738963
    1123           0     -1301.942871  -1646.576660  -33166.66796      5.974224
    1124           0     -1301.942871  -1646.576660  -33500.00000     10.800243
    1125           0     -1301.942871  -1646.576660  -33833.33593     16.575195
    1126           0     -1204.000244  -1719.492188  -29166.66601     13.062786
    1127           0     -1204.000244  -1719.492188  -29500.00000     15.496610
    1128           0     -1204.000244  -1719.492188  -29833.33203     16.278990
    1129           0     -1204.000244  -1719.492188  -30166.66601     17.858498
    1130           0     -1204.000244  -1719.492188  -30500.00000     19.297470
    1131           0     -1204.000244  -1719.492188  -30833.33593     20.710770
    1132           0     -1204.000244  -1719.492188  -31166.66601     21.307266
    1133           0     -1204.000244  -1719.492188  -31500.00000     20.598883
    1134           0     -1204.000244  -1719.492188  -31833.33203     18.378334
    1135           0     -1204.000244  -1719.492188  -32166.66796     14.845939
    1136           0     -1204.000244  -1719.492188  -32500.00195     10.716471
    1137           0     -1204.000244  -1719.492188  -32833.33593      6.933966
    1138           0     -1204.000244  -1719.492188  -33166.66796      5.264403
    1139           0     -1204.000244  -1719.492188  -33500.00000      6.733761
    1140           0     -1204.000244  -1719.492188  -33833.33593      9.647592
    1141           0     -1101.983643  -1786.589478  -29166.66601      7.749003
    1142           0     -1101.983643  -1786.589478  -29500.00000     10.093949
    1143           0     -1101.983643  -1786.589478  -29833.33203     11.293047
    1144           0     -1101.983643  -1786.589478  -30166.66601     13.210914
    1145           0     -1101.983643  -1786.589478  -30500.00000     14.963448
    1146           0     -1101.983643  -1786.589478  -30833.33593     16.628080
    1147           0     -1101.983643  -1786.589478  -31166.66601     17.680035
    1148           0     -1101.983643  -1786.589478  -31500.00000     17.676733
    1149           0     -1101.983643  -1786.589478  -31833.33203     16.457472
    1150           0     -1101.983643  -1786.589478  -32166.66796     14.225558
    1151           0     -1101.983643  -1786.589478  -32500.00195     11.668409
    1152           0     -1101.983643  -1786.589478  -32833.33593      9.281695
    1153           0     -1101.983643  -1786.589478  -33166.66796      7.697366
    1154           0     -1101.983643  -1786.589478  -33500.00000      7.249557
    1155           0     -1101.983643  -1786.589478  -33833.33593      7.160820
    1156           0      -996.238403  -1847.641357  -29166.66601      3.398840
    1157           0      -996.238403  -1847.641357  -29500.00000      5.788109
    1158           0      -996.238403  -1847.641357  -29833.33203      7.444250
    1159           0      -996.238403  -1847.641357  -30166.66601      9.434382
    1160           0      -996.238403  -1847.641357  -30500.00000     11.142740
    1161           0      -996.238403  -1847.641357  -30833.33593     12.577887
    1162           0      -996.238403  -1847.641357  -31166.66601     13.515818
    1163           0      -996.238403  -1847.641357  -31500.00000     13.757039
    1164           0      -996.238403  -1847.641357  -31833.33203     13.250561
    1165           0      -996.238403  -1847.641357  -32166.66796     12.186547
    1166           0      -996.238403  -1847.641357  -32500.00195     10.995880
    1167           0      -996.238403  -1847.641357  -32833.33593      9.920745
    1168           0      -996.238403  -1847.641357  -33166.66796      9.443271
    1169           0      -996.238403  -1847.641357  -33500.00000      9.408501
    1170           0      -996.238403  -1847.641357  -33833.33593      9.357305
    1171           0      -887.122070  -1902.441650  -29166.66601      1.736682
    1172           0      -887.122070  -1902.441650  -29500.00000      3.696877
    1173           0      -887.122070  -1902.441650  -29833.33203      5.501996
    1174           0      -887.122070  -1902.441650  -30166.66601      7.029984
    1175           0      -887.122070  -1902.441650  -30500.00000      8.294130
    1176           0      -887.122070  -1902.441650  -30833.33593      9.179187
    1177           0      -887.122070  -1902.441650  -31166.66601      9.694892
    1178           0      -887.122070  -1902.441650  -31500.00000      9.852814
    1179           0      -887.122070  -1902.441650  -31833.33203      9.683990
    1180           0      -887.122070  -1902.441650  -32166.66796      9.390285
    1181           0      -887.122070  -1902.441650  -32500.00195      9.171058
    1182           0      -887.122070  -1902.441650  -32833.33593      9.151728
    1183           0      -887.122070  -1902.441650  -33166.66796      9.773457
    1184           0      -887.122070  -1902.441650  -33500.00000     10.537351
    1185           0      -887.122070  -1902.441650  -33833.33593     11.401748
    1186           0      -775.004028  -1950.804565  -29166.66601      3.974777
    1187           0      -775.004028  -1950.804565  -29500.00000      4.601321
    1188           0      -775.004028  -1950.804565  -29833.33203      5.714591
    1189           0      -775.004028  -1950.804565  -30166.66601      6.360695
    1190           0      -775.004028  -1950.804565  -30500.00000      6.938894
    1191           0      -775.004028  -1950.804565  -30833.33593      7.166871
    1192           0      -775.004028  -1950.804565  -31166.66601      7.161134
    1193           0      -775.004028  -1950.804565  -31500.00000      6.996054
    1194           0      -775.004028  -1950.804565  -31833.33203      6.747059
    1195           0      -775.004028  -1950.804565  -32166.66796      6.683065
    1196           0      -775.004028  -1950.804565  -32500.00195      6.927422
    1197           0      -775.004028  -1950.804565  -32833.33593      7.560907
    1198           0      -775.004028  -1950.804565  -33166.66796      8.929558
    1199           0      -775.004028  -1950.804565  -33500.00000     10.284827
    1200           0      -775.004028  -1950.804565  -33833.33593     11.814059
    1201           0      -660.263672  -1992.566650  -29166.66601      5.913889
    1202           0      -660.263672  -1992.566650  -29500.00000      6.131891
    1203           0      -660.263672  -1992.566650  -29833.33203      6.669813
    1204           0      -660.263672  -1992.566650  -30166.66601      6.709405
    1205           0      -660.263672  -1992.566650  -30500.00000      6.765610
    1206           0      -660.263672  -1992.566650  -30833.33593      6.517155
    1207           0      -660.263672  -1992.566650  -31166.66601      6.102854
    1208           0      -660.263672  -1992.566650  -31500.00000      5.555346
    1209           0      -660.263672  -1992.566650  -31833.33203      4.969822
    1210           0      -660.263672  -1992.566650  -32166.66796      4.669608
    1211           0      -660.263672  -1992.566650  -32500.00195      4.888498
    1212           0      -660.263672  -1992.566650  -32833.33593      5.729118
    1213           0      -660.263672  -1992.566650  -33166.66796      7.386920
    1214           0      -660.263672  -1992.566650  -33500.00000      8.993127
    1215           0      -660.263672  -1992.566650  -33833.33593     10.749065
    1216           0      -543.289124  -2027.586426  -29166.66601      7.126261
    1217           0      -543.289124  -2027.586426  -29500.00000      7.118523
    1218           0      -543.289124  -2027.586426  -29833.33203      7.293068
    1219           0      -543.289124  -2027.586426  -30166.66601      7.027778
    1220           0      -543.289124  -2027.586426  -30500.00000      6.801578
    1221           0      -543.289124  -2027.586426  -30833.33593      6.314889
    1222           0      -543.289124  -2027.586426  -31166.66601      5.695681
    1223           0      -543.289124  -2027.586426  -31500.00000      4.930230
    1224           0      -543.289124  -2027.586426  -31833.33203      4.103651
    1225           0      -543.289124  -2027.586426  -32166.66796      3.457452
    1226           0      -543.289124  -2027.586426  -32500.00195      3.360855
    1227           0      -543.289124  -2027.586426  -32833.33593      4.054926
    1228           0      -543.289124  -2027.586426  -33166.66796      5.603928
    1229           0      -543.289124  -2027.586426  -33500.00000      7.162537
    1230           0      -543.289124  -2027.586426  -33833.33593      8.767841
    1231           0      -424.476318  -2055.745605  -29166.66601      7.700201
    1232           0      -424.476318  -2055.745605  -29500.00000      7.469153
    1233           0      -424.476318  -2055.745605  -29833.33203      7.359628
    1234           0      -424.476318  -2055.745605  -30166.66601      6.908795
    1235           0      -424.476318  -2055.745605  -30500.00000      6.508198
    1236           0      -424.476318  -2055.745605  -30833.33593      5.905239
    1237           0      -424.476318  -2055.745605  -31166.66601      5.206135
    1238           0      -424.476318  -2055.745605  -31500.00000      4.384042
    1239           0      -424.476318  -2055.745605  -31833.33203      3.513299
    1240           0      -424.476318  -2055.745605  -32166.66796      2.708696
    1241           0      -424.476318  -2055.745605  -32500.00195      2.315947
    1242           0      -424.476318  -2055.745605  -32833.33593      2.716686
    1243           0      -424.476318  -2055.745605  -33166.66796      3.923103
    1244           0      -424.476318  -2055.745605  -33500.00000      5.258408
    1245           0      -424.476318  -2055.745605  -33833.33593      6.476077
    1246           0      -304.227173  -2076.948730  -29166.66601      7.830718
    1247           0      -304.227173  -2076.948730  -29500.00000      7.374014
    1248           0      -304.227173  -2076.948730  -29833.33203      7.021974
    1249           0      -304.227173  -2076.948730  -30166.66601      6.428527
    1250           0      -304.227173  -2076.948730  -30500.00000      5.898460
    1251           0      -304.227173  -2076.948730  -30833.33593      5.234537
    1252           0      -304.227173  -2076.948730  -31166.66601      4.514888
    1253           0      -304.227173  -2076.948730  -31500.00000      3.713826
    1254           0      -304.227173  -2076.948730  -31833.33203      2.895376
    1255           0      -304.227173  -2076.948730  -32166.66796      2.095370
    1256           0      -304.227173  -2076.948730  -32500.00195      1.568569
    1257           0      -304.227173  -2076.948730  -32833.33593      1.732527
    1258           0      -304.227173  -2076.948730  -33166.66796      2.553707
    1259           0      -304.227173  -2076.948730  -33500.00000      3.622435
    1260           0      -304.227173  -2076.948730  -33833.33593      4.378673
    1261           0      -182.948608  -2091.124023  -29166.66601      7.749712
    1262           0      -182.948608  -2091.124023  -29500.00000      7.105968
    1263           0      -182.948608  -2091.124023  -29833.33203      6.565719
    1264           0      -182.948608  -2091.124023  -30166.66601      5.864676
    1265           0      -182.948608  -2091.124023  -30500.00000      5.241786
    1266           0      -182.948608  -2091.124023  -30833.33593      4.548630
    1267           0      -182.948608  -2091.124023  -31166.66601      3.833927
    1268           0      -182.948608  -2091.124023  -31500.00000      3.074974
    1269           0      -182.948608  -2091.124023  -31833.33203      2.323474
    1270           0      -182.948608  -2091.124023  -32166.66796      1.581988
    1271           0      -182.948608  -2091.124023  -32500.00195      1.030846
    1272           0      -182.948608  -2091.124023  -32833.33593      1.092440
    1273           0      -182.948608  -2091.124023  -33166.66796      1.616630
    1274           0      -182.948608  -2091.124023  -33500.00000      2.475064
    1275           0      -182.948608  -2091.124023  -33833.33593      2.830909
    1276           0       -61.051060  -2098.223633  -29166.66601      7.664365
    1277           0       -61.051060  -2098.223633  -29500.00000      6.916755
    1278           0       -61.051060  -2098.223633  -29833.33203      6.274037
    1279           0       -61.051060  -2098.223633  -30166.66601      5.515316
    1280           0       -61.051060  -2098.223633  -30500.00000      4.845985
    1281           0       -61.051060  -2098.223633  -30833.33593      4.145066
    1282           0       -61.051060  -2098.223633  -31166.66601      3.443351
    1283           0       -61.051060  -2098.223633  -31500.00000      2.719759
    1284           0       -61.051060  -2098.223633  -31833.33203      2.019099
    1285           0       -61.051060  -2098.223633  -32166.66796      1.339332
    1286           0       -61.051060  -2098.223633  -32500.00195      0.825256
    1287           0       -61.051060  -2098.223633  -32833.33593      0.866128
    1288           0       -61.051060  -2098.223633  -33166.66796      1.207577
    1289           0       -61.051060  -2098.223633  -33500.00000      1.931920
    1290           0       -61.051060  -2098.223633  -33833.33593      2.055354
    1291           0        61.053070  -2098.223633  -29166.66601      7.694884
    1292           0        61.053070  -2098.223633  -29500.00000      6.953747
    1293           0        61.053070  -2098.223633  -29833.33203      6.316021
    1294           0        61.053070  -2098.223633  -30166.66601      5.562915
    1295           0        61.053070  -2098.223633  -30500.00000      4.900258
    1296           0        61.053070  -2098.223633  -30833.33593      4.207486
    1297           0        61.053070  -2098.223633  -31166.66601      3.516958
    1298           0        61.053070  -2098.223633  -31500.00000      2.810281
    1299           0        61.053070  -2098.223633  -31833.33203      2.135995
    1300           0        61.053070  -2098.223633  -32166.66796      1.502780
    1301           0        61.053070  -2098.223633  -32500.00195      1.058287
    1302           0        61.053070  -2098.223633  -32833.33593      1.076041
    1303           0        61.053070  -2098.223633  -33166.66796      1.356638
    1304           0        61.053070  -2098.223633  -33500.00000      2.016124
    1305           0        61.053070  -2098.223633  -33833.33593      2.139707
    1306           0       182.950684  -2091.123779  -29166.66601      7.837225
    1307           0       182.950684  -2091.123779  -29500.00000      7.212110
    1308           0       182.950684  -2091.123779  -29833.33203      6.684620
    1309           0       182.950684  -2091.123779  -30166.66601      5.998862
    1310           0       182.950684  -2091.123779  -30500.00000      5.393679
    1311           0       182.950684  -2091.123779  -30833.33593      4.722150
    1312           0       182.950684  -2091.123779  -31166.66601      4.036236
    1313           0       182.950684  -2091.123779  -31500.00000      3.319487
    1314           0       182.950684  -2091.123779  -31833.33203      2.631291
    1315           0       182.950684  -2091.123779  -32166.66796      1.993576
    1316           0       182.950684  -2091.123779  -32500.00195      1.571680
    1317           0       182.950684  -2091.123779  -32833.33593      1.587743
    1318           0       182.950684  -2091.123779  -33166.66796      1.966924
    1319           0       182.950684  -2091.123779  -33500.00000      2.689314
    1320           0       182.950684  -2091.123779  -33833.33593      3.026965
    1321           0       304.229187  -2076.948242  -29166.66601      7.965704
    1322           0       304.229187  -2076.948242  -29500.00000      7.537357
    1323           0       304.229187  -2076.948242  -29833.33203      7.202830
    1324           0       304.229187  -2076.948242  -30166.66601      6.631913
    1325           0       304.229187  -2076.948242  -30500.00000      6.127914
    1326           0       304.229187  -2076.948242  -30833.33593      5.495650
    1327           0       304.229187  -2076.948242  -31166.66601      4.816602
    1328           0       304.229187  -2076.948242  -31500.00000      4.072722
    1329           0       304.229187  -2076.948242  -31833.33203      3.337531
    1330           0       304.229187  -2076.948242  -32166.66796      2.662751
    1331           0       304.229187  -2076.948242  -32500.00195      2.256728
    1332           0       304.229187  -2076.948242  -32833.33593      2.353192
    1333           0       304.229187  -2076.948242  -33166.66796      2.992195
    1334           0       304.229187  -2076.948242  -33500.00000      3.912016
    1335           0       304.229187  -2076.948242  -33833.33593      4.623950
    1336           0       424.478271  -2055.745117  -29166.66601      7.870839
    1337           0       424.478271  -2055.745117  -29500.00000      7.677145
    1338           0       424.478271  -2055.745117  -29833.33203      7.588140
    1339           0       424.478271  -2055.745117  -30166.66601      7.167070
    1340           0       424.478271  -2055.745117  -30500.00000      6.801137
    1341           0       424.478271  -2055.745117  -30833.33593      6.240495
    1342           0       424.478271  -2055.745117  -31166.66601      5.593938
    1343           0       424.478271  -2055.745117  -31500.00000      4.842934
    1344           0       424.478271  -2055.745117  -31833.33203      4.073009
    1345           0       424.478271  -2055.745117  -32166.66796      3.402320
    1346           0       424.478271  -2055.745117  -32500.00195      3.094992
    1347           0       424.478271  -2055.745117  -32833.33593      3.394973
    1348           0       424.478271  -2055.745117  -33166.66796      4.406703
    1349           0       424.478271  -2055.745117  -33500.00000      5.598985
    1350           0       424.478271  -2055.745117  -33833.33593      6.753696
    1351           0       543.291138  -2027.586060  -29166.66601      7.322547
    1352           0       543.291138  -2027.586060  -29500.00000      7.361112
    1353           0       543.291138  -2027.586060  -29833.33203      7.558547
    1354           0       543.291138  -2027.586060  -30166.66601      7.330295
    1355           0       543.291138  -2027.586060  -30500.00000      7.148242
    1356           0       543.291138  -2027.586060  -30833.33593      6.716432
    1357           0       543.291138  -2027.586060  -31166.66601      6.164407
    1358           0       543.291138  -2027.586060  -31500.00000      5.485257
    1359           0       543.291138  -2027.586060  -31833.33203      4.772677
    1360           0       543.291138  -2027.586060  -32166.66796      4.244109
    1361           0       543.291138  -2027.586060  -32500.00195      4.174944
    1362           0       543.291138  -2027.586060  -32833.33593      4.752220
    1363           0       543.291138  -2027.586060  -33166.66796      6.119988
    1364           0       543.291138  -2027.586060  -33500.00000      7.549984
    1365           0       543.291138  -2027.586060  -33833.33593      9.084174
    1366           0       660.265625  -1992.566162  -29166.66601      6.132046
    1367           0       660.265625  -1992.566162  -29500.00000      6.403385
    1368           0       660.265625  -1992.566162  -29833.33203      6.961935
    1369           0       660.265625  -1992.566162  -30166.66601      7.039504
    1370           0       660.265625  -1992.566162  -30500.00000      7.143467
    1371           0       660.265625  -1992.566162  -30833.33593      6.957044
    1372           0       660.265625  -1992.566162  -31166.66601      6.619583
    1373           0       660.265625  -1992.566162  -31500.00000      6.163677
    1374           0       660.265625  -1992.566162  -31833.33203      5.681845
    1375           0       660.265625  -1992.566162  -32166.66796      5.454979
    1376           0       660.265625  -1992.566162  -32500.00195      5.665710
    1377           0       660.265625  -1992.566162  -32833.33593      6.416998
    1378           0       660.265625  -1992.566162  -33166.66796      7.932792
    1379           0       660.265625  -1992.566162  -33500.00000      9.433798
    1380           0       660.265625  -1992.566162  -33833.33593     11.120321
    1381           0       775.005920  -1950.803833  -29166.66601      4.231920
    1382           0       775.005920  -1950.803833  -29500.00000      4.896763
    1383           0       775.005920  -1950.803833  -29833.33203      6.009542
    1384           0       775.005920  -1950.803833  -30166.66601      6.670995
    1385           0       775.005920  -1950.803833  -30500.00000      7.281080
    1386           0       775.005920  -1950.803833  -30833.33593      7.557804
    1387           0       775.005920  -1950.803833  -31166.66601      7.619292
    1388           0       775.005920  -1950.803833  -31500.00000      7.534068
    1389           0       775.005920  -1950.803833  -31833.33203      7.367947
    1390           0       775.005920  -1950.803833  -32166.66796      7.362744
    1391           0       775.005920  -1950.803833  -32500.00195      7.620481
    1392           0       775.005920  -1950.803833  -32833.33593      8.224272
    1393           0       775.005920  -1950.803833  -33166.66796      9.508718
    1394           0       775.005920  -1950.803833  -33500.00000     10.792699
    1395           0       775.005920  -1950.803833  -33833.33593     12.265377
    1396           0       887.123901  -1902.440918  -29166.66601      2.116152
    1397           0       887.123901  -1902.440918  -29500.00000      3.938337
    1398           0       887.123901  -1902.440918  -29833.33203      5.721295
    1399           0       887.123901  -1902.440918  -30166.66601      7.231987
    1400           0       887.123901  -1902.440918  -30500.00000      8.508553
    1401           0       887.123901  -1902.440918  -30833.33593      9.423287
    1402           0       887.123901  -1902.440918  -31166.66601      9.992076
    1403           0       887.123901  -1902.440918  -31500.00000     10.223457
    1404           0       887.123901  -1902.440918  -31833.33203     10.139149
    1405           0       887.123901  -1902.440918  -32166.66796      9.927797
    1406           0       887.123901  -1902.440918  -32500.00195      9.769150
    1407           0       887.123901  -1902.440918  -32833.33593      9.787172
    1408           0       887.123901  -1902.440918  -33166.66796     10.394646
    1409           0       887.123901  -1902.440918  -33500.00000     11.135229
    1410           0       887.123901  -1902.440918  -33833.33593     11.971475
    1411           0       996.240112  -1847.640503  -29166.66601      3.521994
    1412           0       996.240112  -1847.640503  -29500.00000      5.846877
    1413           0       996.240112  -1847.640503  -29833.33203      7.523442
    1414           0       996.240112  -1847.640503  -30166.66601      9.501213
    1415           0       996.240112  -1847.640503  -30500.00000     11.219836
    1416           0       996.240112  -1847.640503  -30833.33593     12.677630
    1417           0       996.240112  -1847.640503  -31166.66601     13.660731
    1418           0       996.240112  -1847.640503  -31500.00000     13.969460
    1419           0       996.240112  -1847.640503  -31833.33203     13.548919
    1420           0       996.240112  -1847.640503  -32166.66796     12.587012
    1421           0       996.240112  -1847.640503  -32500.00195     11.499747
    1422           0       996.240112  -1847.640503  -32833.33593     10.527302
    1423           0       996.240112  -1847.640503  -33166.66796     10.118656
    1424           0       996.240112  -1847.640503  -33500.00000     10.130302
    1425           0       996.240112  -1847.640503  -33833.33593     10.105146
    1426           0      1101.985352  -1786.588501  -29166.66601      7.767359
    1427           0      1101.985352  -1786.588501  -29500.00000     10.065879
    1428           0      1101.985352  -1786.588501  -29833.33203     11.286386
    1429           0      1101.985352  -1786.588501  -30166.66601     13.195315
    1430           0      1101.985352  -1786.588501  -30500.00000     14.957918
    1431           0      1101.985352  -1786.588501  -30833.33593     16.641306
    1432           0      1101.985352  -1786.588501  -31166.66601     17.729103
    1433           0      1101.985352  -1786.588501  -31500.00000     17.776377
    1434           0      1101.985352  -1786.588501  -31833.33203     16.625874
    1435           0      1101.985352  -1786.588501  -32166.66796     14.491816
    1436           0      1101.985352  -1786.588501  -32500.00195     12.065281
    1437           0      1101.985352  -1786.588501  -32833.33593      9.848952
    1438           0      1101.985352  -1786.588501  -33166.66796      8.438837
    1439           0      1101.985352  -1786.588501  -33500.00000      8.113335
    1440           0      1101.985352  -1786.588501  -33833.33593      8.056881
    1441           0      1204.001953  -1719.490967  -29166.66601     13.042191
    1442           0      1204.001953  -1719.490967  -29500.00000     15.430649
    1443           0      1204.001953  -1719.490967  -29833.33203     16.233047
    1444           0      1204.001953  -1719.490967  -30166.66601     17.806929
    1445           0      1204.001953  -1719.490967  -30500.00000     19.259920
    1446           0      1204.001953  -1719.490967  -30833.33593     20.688101
    1447           0      1204.001953  -1719.490967  -31166.66601     21.306284
    1448           0      1204.001953  -1719.490967  -31500.00000     20.618038
    1449           0      1204.001953  -1719.490967  -31833.33203     18.426661
    1450           0      1204.001953  -1719.490967  -32166.66796     14.952282
    1451           0      1204.001953  -1719.490967  -32500.00195     10.944975
    1452           0      1204.001953  -1719.490967  -32833.33593      7.402797
    1453           0      1204.001953  -1719.490967  -33166.66796      5.990702
    1454           0      1204.001953  -1719.490967  -33500.00000      7.429067
    1455           0      1204.001953  -1719.490967  -33833.33593     10.151744
    1456           0      1301.944458  -1646.575439  -29166.66601     19.210690
    1457           0      1301.944458  -1646.575439  -29500.00000     21.566423
    1458           0      1301.944458  -1646.575439  -29833.33203     21.950899
    1459           0      1301.944458  -1646.575439  -30166.66601     23.082630
    1460           0      1301.944458  -1646.575439  -30500.00000     24.027605
    1461           0      1301.944458  -1646.575439  -30833.33593     24.749069
    1462           0      1301.944458  -1646.575439  -31166.66601     24.306671
    1463           0      1301.944458  -1646.575439  -31500.00000     22.456686
    1464           0      1301.944458  -1646.575439  -31833.33203     19.032330
    1465           0      1301.944458  -1646.575439  -32166.66796     14.290689
    1466           0      1301.944458  -1646.575439  -32500.00195      8.583182
    1467           0      1301.944458  -1646.575439  -32833.33593      3.684743
    1468           0      1301.944458  -1646.575439  -33166.66796      6.108231
    1469           0      1301.944458  -1646.575439  -33500.00000     10.975055
    1470           0      1301.944458  -1646.575439  -33833.33593     16.693274
    1471           0      1395.481689  -1568.088257  -29166.66601     26.382246
    1472           0      1395.481689  -1568.088257  -29500.00000     28.403725
    1473           0      1395.481689  -1568.088257  -29833.33203     28.301434
    1474           0      1395.481689  -1568.088257  -30166.66601     28.960617
    1475           0      1395.481689  -1568.088257  -30500.00000     29.442743
    1476           0      1395.481689  -1568.088257  -30833.33593     29.435101
    1477           0      1395.481689  -1568.088257  -31166.66601     28.050671
    1478           0      1395.481689  -1568.088257  -31500.00000     25.328636
    1479           0      1395.481689  -1568.088257  -31833.33203     20.961201
    1480           0      1395.481689  -1568.088257  -32166.66796     15.357203
    1481           0      1395.481689  -1568.088257  -32500.00195      8.586803
    1482           0      1395.481689  -1568.088257  -32833.33593      4.784881
    1483           0      1395.481689  -1568.088257  -33166.66796     10.371069
    1484           0      1395.481689  -1568.088257  -33500.00000     16.614077
    1485           0      1395.481689  -1568.088257  -33833.33593     24.094486
    1486           0      1484.296875  -1484.295166  -29166.66601     34.771816
    1487           0      1484.296875  -1484.295166  -29500.00000     36.048649
    1488           0      1484.296875  -1484.295166  -29833.33203     35.325142
    1489           0      1484.296875  -1484.295166  -30166.66601     35.426075
    1490           0      1484.296875  -1484.295166  -30500.00000     35.628120
    1491           0      1484.296875  -1484.295166  -30833.33593     35.386620
    1492           0      1484.296875  -1484.295166  -31166.66601     34.042271
    1493           0      1484.296875  -1484.295166  -31500.00000     31.564482
    1494           0      1484.296875  -1484.295166  -31833.33203     27.269949
    1495           0      1484.296875  -1484.295166  -32166.66796     21.556129
    1496           0      1484.296875  -1484.295166  -32500.00195     14.651391
    1497           0      1484.296875  -1484.295166  -32833.33593     11.088759
    1498           0      1484.296875  -1484.295166  -33166.66796     15.295504
    1499           0      1484.296875  -1484.295166  -33500.00000     21.566566
    1500           0      1484.296875  -1484.295166  -33833.33593     29.822596
    1501           0      1568.089844  -1395.479858  -29166.66601     44.585426
    1502           0      1568.089844  -1395.479858  -29500.00000     44.735550
    1503           0      1568.089844  -1395.479858  -29833.33203     43.201550
    1504           0      1568.089844  -1395.479858  -30166.66601     42.385944
    1505           0      1568.089844  -1395.479858  -30500.00000     42.194977
    1506           0      1568.089844  -1395.479858  -30833.33593     41.884785
    1507           0      1568.089844  -1395.479858  -31166.66601     41.017284
    1508           0      1568.089844  -1395.479858  -31500.00000     39.357925
    1509           0      1568.089844  -1395.479858  -31833.33203     35.957859
    1510           0      1568.089844  -1395.479858  -32166.66796     30.854033
    1511           0      1568.089844  -1395.479858  -32500.00195     23.708958
    1512           0      1568.089844  -1395.479858  -32833.33593     18.035164
    1513           0      1568.089844  -1395.479858  -33166.66796     18.909494
    1514           0      1568.089844  -1395.479858  -33500.00000     24.051247
    1515           0      1568.089844  -1395.479858  -33833.33593     32.022125
    1516           0      1646.576782  -1301.942627  -29166.66601     55.862865
    1517           0      1646.576782  -1301.942627  -29500.00000     54.715862
    1518           0      1646.576782  -1301.942627  -29833.33203     52.051743
    1519           0      1646.576782  -1301.942627  -30166.66601     49.349087
    1520           0      1646.576782  -1301.942627  -30500.00000     47.562447
    1521           0      1646.576782  -1301.942627  -30833.33593     45.874092
    1522           0      1646.576782  -1301.942627  -31166.66601     44.504433
    1523           0      1646.576782  -1301.942627  -31500.00000     43.266685
    1524           0      1646.576782  -1301.942627  -31833.33203     41.192337
    1525           0      1646.576782  -1301.942627  -32166.66796     37.831074
    1526           0      1646.576782  -1301.942627  -32500.00195     32.010239
    1527           0      1646.576782  -1301.942627  -32833.33593     24.782703
    1528           0      1646.576782  -1301.942627  -33166.66796     20.837444
    1529           0      1646.576782  -1301.942627  -33500.00000     23.394049
    1530           0      1646.576782  -1301.942627  -33833.33593     29.710125
    1531           0      1719.492432  -1204.000000  -29166.66601     68.363197
    1532           0      1719.492432  -1204.000000  -29500.00000     65.943184
    1533           0      1719.492432  -1204.000000  -29833.33203     61.352577
    1534           0      1719.492432  -1204.000000  -30166.66601     54.553421
    1535           0      1719.492432  -1204.000000  -30500.00000     48.267120
    1536           0      1719.492432  -1204.000000  -30833.33593     42.793606
    1537           0      1719.492432  -1204.000000  -31166.66601     39.369629
    1538           0      1719.492432  -1204.000000  -31500.00000     37.841637
    1539           0      1719.492432  -1204.000000  -31833.33203     37.233547
    1540           0      1719.492432  -1204.000000  -32166.66796     36.545086
    1541           0      1719.492432  -1204.000000  -32500.00195     34.532986
    1542           0      1719.492432  -1204.000000  -32833.33593     29.442127
    1543           0      1719.492432  -1204.000000  -33166.66796     22.478369
    1544           0      1719.492432  -1204.000000  -33500.00000     21.352455
    1545           0      1719.492432  -1204.000000  -33833.33593     24.175758
    1546           0      1786.589478  -1101.983398  -29166.66601     81.137314
    1547           0      1786.589478  -1101.983398  -29500.00000     77.904495
    1548           0      1786.589478  -1101.983398  -29833.33203     68.546364
    1549           0      1786.589478  -1101.983398  -30166.66601     54.234283
    1550           0      1786.589478  -1101.983398  -30500.00000     40.861912
    1551           0      1786.589478  -1101.983398  -30833.33593     30.993486
    1552           0      1786.589478  -1101.983398  -31166.66601     25.185385
    1553           0      1786.589478  -1101.983398  -31500.00000     22.938717
    1554           0      1786.589478  -1101.983398  -31833.33203     23.375088
    1555           0      1786.589478  -1101.983398  -32166.66796     24.179726
    1556           0      1786.589478  -1101.983398  -32500.00195     25.814720
    1557           0      1786.589478  -1101.983398  -32833.33593     26.174904
    1558           0      1786.589478  -1101.983398  -33166.66796     23.770433
    1559           0      1786.589478  -1101.983398  -33500.00000     23.114548
    1560           0      1786.589478  -1101.983398  -33833.33593     23.202675
    1561           0      1847.641602   -996.238037  -29166.66601     93.625862
    1562           0      1847.641602   -996.238037  -29500.00000     87.487404
    1563           0      1847.641602   -996.238037  -29833.33203     69.251846
    1564           0      1847.641602   -996.238037  -30166.66601     47.164257
    1565           0      1847.641602   -996.238037  -30500.00000     36.433479
    1566           0      1847.641602   -996.238037  -30833.33593     32.076660
    1567           0      1847.641602   -996.238037  -31166.66601     31.990791
    1568           0      1847.641602   -996.238037  -31500.00000     32.401016
    1569           0      1847.641602   -996.238037  -31833.33203     30.707525
    1570           0      1847.641602   -996.238037  -32166.66796     27.185507
    1571           0      1847.641602   -996.238037  -32500.00195     19.901381
    1572           0      1847.641602   -996.238037  -32833.33593     12.196380
    1573           0      1847.641602   -996.238037  -33166.66796     15.625219
    1574           0      1847.641602   -996.238037  -33500.00000     28.166864
    1575           0      1847.641602   -996.238037  -33833.33593     35.869396
    1576           0      1902.441772   -887.121765  -29166.66601    102.745354
    1577           0      1902.441772   -887.121765  -29500.00000     89.790749
    1578           0      1902.441772   -887.121765  -29833.33203     66.059708
    1579           0      1902.441772   -887.121765  -30166.66601     61.457165
    1580           0      1902.441772   -887.121765  -30500.00000     66.611183
    1581           0      1902.441772   -887.121765  -30833.33593     71.177521
    1582           0      1902.441772   -887.121765  -31166.66601     74.755524
    1583           0      1902.441772   -887.121765  -31500.00000     75.452988
    1584           0      1902.441772   -887.121765  -31833.33203     74.225502
    1585           0      1902.441772   -887.121765  -32166.66796     69.137253
    1586           0      1902.441772   -887.121765  -32500.00195     60.793106
    1587           0      1902.441772   -887.121765  -32833.33593     47.033703
    1588           0      1902.441772   -887.121765  -33166.66796     24.329760
    1589           0      1902.441772   -887.121765  -33500.00000     25.845413
    1590           0      1902.441772   -887.121765  -33833.33593     55.549973
    1591           0      1950.804565   -775.003784  -29166.66601    105.579887
    1592           0      1950.804565   -775.003784  -29500.00000     93.839325
    1593           0      1950.804565   -775.003784  -29833.33203    107.422806
    1594           0      1950.804565   -775.003784  -30166.66601    115.167259
    1595           0      1950.804565   -775.003784  -30500.00000    120.945068
    1596           0      1950.804565   -775.003784  -30833.33593    124.162270
    1597           0      1950.804565   -775.003784  -31166.66601    125.356926
    1598           0      1950.804565   -775.003784  -31500.00000    125.854095
    1599           0      1950.804565   -775.003784  -31833.33203    124.599915
    1600           0      1950.804565   -775.003784  -32166.66796    122.854233
    1601           0      1950.804565   -775.003784  -32500.00195    118.287849
    1602           0      1950.804565   -775.003784  -32833.33593    112.133484
    1603           0      1950.804565   -775.003784  -33166.66796     98.941071
    1604           0      1950.804565   -775.003784  -33500.00000     71.687988
    1605           0      1950.804565   -775.003784  -33833.33593     72.607407
    1606           0      1992.908203   -659.120605  -29166.66601    118.725739
    1607           0      1992.908203   -659.120605  -29500.00000    213.865494
    1608           0      1992.908203   -659.120605  -29833.33203    191.672897
    1609           0      1992.908203   -659.120605  -30166.66601    182.728409
    1610           0      1992.908203   -659.120605  -30500.00000    180.113663
    1611           0      1992.908203   -659.120605  -30833.33593    172.242035
    1612           0      1992.908203   -659.120605  -31166.66601    170.554474
    1613           0      1992.908203   -659.120605  -31500.00000    168.378220
    1614           0      1992.908203   -659.120605  -31833.33203    168.528168
    1615           0      1992.908203   -659.120605  -32166.66796    171.528870
    1616           0      1992.908203   -659.120605  -32500.00195    174.902786
    1617           0      1992.908203   -659.120605  -32833.33593    184.877380
    1618           0      1992.908203   -659.120605  -33166.66796    187.262314
    1619           0      1992.908203   -659.120605  -33500.00000    221.753952
    1620           0      1992.908203   -659.120605  -33833.33593    126.722366
    1621           0      2098.223633     61.052101  -14578.05078    170.965668
    1622           0      2098.223633     61.052101  -14934.14843    166.852737
    1623           0      2098.223633     61.052101  -15290.24609    157.120712
    1624           0      2098.223633     61.052105  -15646.34277    141.380341
    1625           0      2098.223633     61.052105  -16002.44140    125.417198
    1626           0      2098.223633     61.052105  -16358.53808    110.072021
    1627           0      2098.223633     61.052109  -16714.63671     97.806503
    1628           0      2098.223633     61.052113  -17070.73437     88.816238
    1629           0      2098.223633     61.052113  -17426.83203     82.777916
    1630           0      2098.223633     61.052113  -17782.92968     79.697403
    1631           0      2098.223633     61.052113  -18139.02539     78.811432
    1632           0      2098.223633     61.052116  -18495.12304     79.644600
    1633           0      2098.223633     61.052116  -18851.22070     81.530060
    1634           0      2098.223633     61.052116  -19207.31835     84.012985
    1635           0      2098.223633     61.052116  -19563.41796     86.691750
    1636           0      2098.223633     61.052116  -19919.51562     89.317398
    1637           0      2098.223633     61.052120  -20275.61132     91.670258
    1638           0      2098.223633     61.052120  -20631.70898     93.651878
    1639           0      2098.223633     61.052120  -20987.80664     95.126076
    1640           0      2098.223633     61.052120  -21343.90429     96.071648
    1641           0      2098.223633     61.052124  -21700.00195     96.385086
    1642           0      2098.223633     61.052128  -22056.09765     96.075127
    1643           0      2098.223633     61.052128  -22412.19726     95.051727
    1644           0      2098.223633     61.052128  -22768.29296     93.324158
    1645           0      2098.223633     61.052128  -23124.39062     90.813126
    1646           0      2098.223633     61.052132  -23480.48828     87.506561
    1647           0      2098.223633     61.052132  -23836.58789     83.344719
    1648           0      2098.223633     61.052132  -24192.68359     78.273376
    1649           0      2098.223633     61.052132  -24548.78125     72.275368
    1650           0      2098.223633     61.052135  -24904.87890     65.235733
    1651           0      2098.223633     61.052139  -25260.97656     57.234867
    1652           0      2098.223633     61.052139  -25617.07421     48.128036
    1653           0      2098.223633     61.052139  -25973.17187     38.298546
    1654           0      2098.223633     61.052139  -26329.26953     28.198347
    1655           0      2098.223633     61.052139  -26685.36718     20.666733
    1656           0      2098.223633     61.052143  -27041.46484     22.272406
    1657           0      2098.223633     61.052143  -27397.56250     33.802193
    1658           0      2098.223633     61.052143  -27753.66015     49.377316
    1659           0      2098.223633     61.052147  -28109.75781     64.744148
    1660           0      2098.223633     61.052151  -28465.85546     73.619568
    1661           0      2098.223633     61.052448  -28821.95312     77.346825
    1662           0      2091.123779    182.949707  -14578.05078    161.875992
    1663           0      2091.123779    182.949707  -14934.14843    158.237167
    1664           0      2091.123779    182.949707  -15290.24609    149.469589
    1665           0      2091.123779    182.949722  -15646.34277    137.875809
    1666           0      2091.123779    182.949722  -16002.44140    125.709785
    1667           0      2091.123779    182.949722  -16358.53808    111.877495
    1668           0      2091.123779    182.949722  -16714.63671     98.992020
    1669           0      2091.123779    182.949722  -17070.73437     87.870605
    1670           0      2091.123779    182.949722  -17426.83203     78.633194
    1671           0      2091.123779    182.949722  -17782.92968     71.766708
    1672           0      2091.123779    182.949738  -18139.02539     67.088074
    1673           0      2091.123779    182.949738  -18495.12304     64.560669
    1674           0      2091.123779    182.949738  -18851.22070     63.748096
    1675           0      2091.123779    182.949738  -19207.31835     64.242699
    1676           0      2091.123779    182.949738  -19563.41796     65.553116
    1677           0      2091.123779    182.949738  -19919.51562     67.279518
    1678           0      2091.123779    182.949738  -20275.61132     69.095886
    1679           0      2091.123779    182.949738  -20631.70898     70.751869
    1680           0      2091.123779    182.949738  -20987.80664     72.078835
    1681           0      2091.123779    182.949738  -21343.90429     72.934875
    1682           0      2091.123779    182.949753  -21700.00195     73.238754
    1683           0      2091.123779    182.949768  -22056.09765     72.904556
    1684           0      2091.123779    182.949768  -22412.19726     71.890114
    1685           0      2091.123779    182.949768  -22768.29296     70.136345
    1686           0      2091.123779    182.949768  -23124.39062     67.614990
    1687           0      2091.123779    182.949768  -23480.48828     64.280281
    1688           0      2091.123779    182.949768  -23836.58789     60.108932
    1689           0      2091.123779    182.949768  -24192.68359     55.061390
    1690           0      2091.123779    182.949768  -24548.78125     49.128166
    1691           0      2091.123779    182.949768  -24904.87890     42.273968
    1692           0      2091.123779    182.949768  -25260.97656     34.555733
    1693           0      2091.123779    182.949783  -25617.07421     26.009466
    1694           0      2091.123779    182.949783  -25973.17187     17.161304
    1695           0      2091.123779    182.949783  -26329.26953     10.274013
    1696           0      2091.123779    182.949783  -26685.36718     13.287406
    1697           0      2091.123779    182.949783  -27041.46484     23.945963
    1698           0      2091.123779    182.949783  -27397.56250     36.420734
    1699           0      2091.123779    182.949783  -27753.66015     48.124889
    1700           0      2091.123779    182.949783  -28109.75781     57.632069
    1701           0      2091.123779    182.949783  -28465.85546     63.221558
    1702           0      2091.123779    182.949753  -28821.95312     65.446281
    1703           0      2076.948242    304.228210  -14578.05078    150.463913
    1704           0      2076.948242    304.228210  -14934.14843    147.661346
    1705           0      2076.948242    304.228210  -15290.24609    139.389008
    1706           0      2076.948242    304.228210  -15646.34277    130.186172
    1707           0      2076.948242    304.228210  -16002.44140    121.223320
    1708           0      2076.948242    304.228210  -16358.53808    110.433121
    1709           0      2076.948242    304.228210  -16714.63671     99.269554
    1710           0      2076.948242    304.228210  -17070.73437     88.606598
    1711           0      2076.948242    304.228210  -17426.83203     78.787537
    1712           0      2076.948242    304.228210  -17782.92968     70.265945
    1713           0      2076.948242    304.228210  -18139.02539     63.151150
    1714           0      2076.948242    304.228210  -18495.12304     57.635059
    1715           0      2076.948242    304.228210  -18851.22070     53.694603
    1716           0      2076.948242    304.228210  -19207.31835     51.242382
    1717           0      2076.948242    304.228210  -19563.41796     50.030964
    1718           0      2076.948242    304.228210  -19919.51562     49.749222
    1719           0      2076.948242    304.228210  -20275.61132     50.049377
    1720           0      2076.948242    304.228210  -20631.70898     50.620834
    1721           0      2076.948242    304.228210  -20987.80664     51.198227
    1722           0      2076.948242    304.228210  -21343.90429     51.580414
    1723           0      2076.948242    304.228210  -21700.00195     51.611828
    1724           0      2076.948242    304.228210  -22056.09765     51.179710
    1725           0      2076.948242    304.228210  -22412.19726     50.200779
    1726           0      2076.948242    304.228210  -22768.29296     48.611389
    1727           0      2076.948242    304.228210  -23124.39062     46.370331
    1728           0      2076.948242    304.228210  -23480.48828     43.438873
    1729           0      2076.948242    304.228210  -23836.58789     39.805485
    1730           0      2076.948242    304.228210  -24192.68359     35.445507
    1731           0      2076.948242    304.228210  -24548.78125     30.385891
    1732           0      2076.948242    304.228210  -24904.87890     24.622919
    1733           0      2076.948242    304.228210  -25260.97656     18.304680
    1734           0      2076.948242    304.228210  -25617.07421     11.691513
    1735           0      2076.948242    304.228210  -25973.17187      6.827238
    1736           0      2076.948242    304.228210  -26329.26953      9.796291
    1737           0      2076.948242    304.228210  -26685.36718     17.644674
    1738           0      2076.948242    304.228210  -27041.46484     26.840216
    1739           0      2076.948242    304.228210  -27397.56250     35.785130
    1740           0      2076.948242    304.228210  -27753.66015     43.226059
    1741           0      2076.948242    304.228210  -28109.75781     48.597820
    1742           0      2076.948242    304.228210  -28465.85546     52.521114
    1743           0      2076.948242    304.228210  -28821.95312     53.861504
    1744           0      2055.745117    424.477325  -14578.05078    137.839722
    1745           0      2055.745117    424.477325  -14934.14843    136.062027
    1746           0      2055.745117    424.477325  -15290.24609    128.427811
    1747           0      2055.745117    424.477325  -15646.34277    120.744446
    1748           0      2055.745117    424.477325  -16002.44140    113.760345
    1749           0      2055.745117    424.477325  -16358.53808    105.804947
    1750           0      2055.745117    424.477325  -16714.63671     97.108788
    1751           0      2055.745117    424.477325  -17070.73437     88.273430
    1752           0      2055.745117    424.477325  -17426.83203     79.625023
    1753           0      2055.745117    424.477325  -17782.92968     71.582153
    1754           0      2055.745117    424.477325  -18139.02539     64.275764
    1755           0      2055.745117    424.477325  -18495.12304     57.896893
    1756           0      2055.745117    424.477325  -18851.22070     52.525719
    1757           0      2055.745117    424.477325  -19207.31835     48.212730
    1758           0      2055.745117    424.477325  -19563.41796     44.939259
    1759           0      2055.745117    424.477325  -19919.51562     42.612415
    1760           0      2055.745117    424.477325  -20275.61132     41.074921
    1761           0      2055.745117    424.477325  -20631.70898     40.123089
    1762           0      2055.745117    424.477325  -20987.80664     39.535927
    1763           0      2055.745117    424.477325  -21343.90429     39.109840
    1764           0      2055.745117    424.477325  -21700.00195     38.662510
    1765           0      2055.745117    424.477325  -22056.09765     38.057613
    1766           0      2055.745117    424.477325  -22412.19726     37.180775
    1767           0      2055.745117    424.477325  -22768.29296     35.964134
    1768           0      2055.745117    424.477325  -23124.39062     34.349991
    1769           0      2055.745117    424.477325  -23480.48828     32.325775
    1770           0      2055.745117    424.477325  -23836.58789     29.884991
    1771           0      2055.745117    424.477325  -24192.68554     27.076035
    1772           0      2055.745117    424.477325  -24548.78125     23.980661
    1773           0      2055.745117    424.477325  -24904.87890     20.786526
    1774           0      2055.745117    424.477325  -25260.97656     17.862452
    1775           0      2055.745117    424.477325  -25617.07226     15.876250
    1776           0      2055.745117    424.477325  -25973.17187     15.777925
    1777           0      2055.745117    424.477325  -26329.26953     18.115080
    1778           0      2055.745117    424.477325  -26685.36914     22.351753
    1779           0      2055.745117    424.477325  -27041.46484     27.772575
    1780           0      2055.745117    424.477325  -27397.56250     32.824825
    1781           0      2055.745117    424.477325  -27753.66015     36.830914
    1782           0      2055.745117    424.477325  -28109.75781     39.717976
    1783           0      2055.745117    424.477325  -28465.85351     42.664459
    1784           0      2055.745117    424.477325  -28821.95117     43.442810
    1785           0      2027.586060    543.290161  -14578.05078    125.104622
    1786           0      2027.586060    543.290161  -14934.14843    124.343475
    1787           0      2027.586060    543.290161  -15290.24609    117.587669
    1788           0      2027.586060    543.290161  -15646.34277    111.147133
    1789           0      2027.586060    543.290161  -16002.44140    105.343544
    1790           0      2027.586060    543.290161  -16358.53808     99.403862
    1791           0      2027.586060    543.290161  -16714.63671     92.960014
    1792           0      2027.586060    543.290161  -17070.73437     86.249992
    1793           0      2027.586060    543.290161  -17426.83007     79.431564
    1794           0      2027.586060    543.290161  -17782.92773     72.881577
    1795           0      2027.586060    543.290161  -18139.02539     66.739517
    1796           0      2027.586060    543.290161  -18495.12304     61.161854
    1797           0      2027.586060    543.290161  -18851.22070     56.238304
    1798           0      2027.586060    543.290161  -19207.31835     52.017662
    1799           0      2027.586060    543.290161  -19563.41796     48.522610
    1800           0      2027.586060    543.290161  -19919.51367     45.724106
    1801           0      2027.586060    543.290161  -20275.61132     43.564346
    1802           0      2027.586060    543.290161  -20631.70898     41.944557
    1803           0      2027.586060    543.290161  -20987.80664     40.747341
    1804           0      2027.586060    543.290161  -21343.90234     39.842648
    1805           0      2027.586060    543.290161  -21700.00000     39.105042
    1806           0      2027.586060    543.290161  -22056.09765     38.420933
    1807           0      2027.586060    543.290161  -22412.19726     37.695145
    1808           0      2027.586060    543.290161  -22768.29492     36.853485
    1809           0      2027.586060    543.290161  -23124.39062     35.841057
    1810           0      2027.586060    543.290161  -23480.48828     34.626030
    1811           0      2027.586060    543.290161  -23836.58789     33.193619
    1812           0      2027.586060    543.290161  -24192.68554     31.557816
    1813           0      2027.586060    543.290161  -24548.78125     29.757496
    1814           0      2027.586060    543.290161  -24904.87890     27.880520
    1815           0      2027.586060    543.290161  -25260.97460     26.078106
    1816           0      2027.586060    543.290161  -25617.07226     24.596838
    1817           0      2027.586060    543.290161  -25973.17187     23.770006
    1818           0      2027.586060    543.290161  -26329.26953     23.971458
    1819           0      2027.586060    543.290161  -26685.36914     25.240629
    1820           0      2027.586060    543.290161  -27041.46484     27.339365
    1821           0      2027.586060    543.290161  -27397.56250     29.212389
    1822           0      2027.586060    543.290161  -27753.66015     30.844229
    1823           0      2027.586060    543.290161  -28109.75781     32.281662
    1824           0      2027.586060    543.290161  -28465.85351     34.360077
    1825           0      2027.586060    543.290161  -28821.94921     34.696659
    1826           0      1992.566162    660.264648  -14578.05078    113.191422
    1827           0      1992.566162    660.264648  -14934.14843    113.373711
    1828           0      1992.566162    660.264648  -15290.24609    107.583542
    1829           0      1992.566162    660.264648  -15646.34277    102.357613
    1830           0      1992.566162    660.264648  -16002.44140     97.405746
    1831           0      1992.566162    660.264648  -16358.53808     92.782051
    1832           0      1992.566162    660.264648  -16714.63671     87.997444
    1833           0      1992.566162    660.264648  -17070.73437     83.141388
    1834           0      1992.566162    660.264648  -17426.83203     78.121925
    1835           0      1992.566162    660.264648  -17782.92968     73.238594
    1836           0      1992.566162    660.264709  -18139.02539     68.614395
    1837           0      1992.566162    660.264709  -18495.12304     64.391037
    1838           0      1992.566162    660.264709  -18851.22070     60.645367
    1839           0      1992.566162    660.264709  -19207.31835     57.414642
    1840           0      1992.566162    660.264709  -19563.41796     54.710159
    1841           0      1992.566162    660.264709  -19919.51562     52.504505
    1842           0      1992.566162    660.264709  -20275.61132     50.752029
    1843           0      1992.566162    660.264709  -20631.70898     49.381950
    1844           0      1992.566162    660.264709  -20987.80664     48.313393
    1845           0      1992.566162    660.264709  -21343.90234     47.457218
    1846           0      1992.566162    660.264709  -21700.00000     46.725021
    1847           0      1992.566162    660.264709  -22056.09765     46.032780
    1848           0      1992.566162    660.264709  -22412.19726     45.304077
    1849           0      1992.566162    660.264709  -22768.29296     44.472618
    1850           0      1992.566162    660.264709  -23124.39062     43.481796
    1851           0      1992.566162    660.264709  -23480.48828     42.287727
    1852           0      1992.566162    660.264709  -23836.58789     40.858227
    1853           0      1992.566162    660.264709  -24192.68359     39.179413
    1854           0      1992.566162    660.264709  -24548.78125     37.259293
    1855           0      1992.566162    660.264709  -24904.87890     35.142101
    1856           0      1992.566162    660.264709  -25260.97656     32.922112
    1857           0      1992.566162    660.264709  -25617.07421     30.766150
    1858           0      1992.566162    660.264709  -25973.17187     28.900492
    1859           0      1992.566162    660.264709  -26329.26953     27.586538
    1860           0      1992.566162    660.264709  -26685.36914     26.861666
    1861           0      1992.566162    660.264709  -27041.46484     26.622786
    1862           0      1992.566162    660.264709  -27397.56250     26.401957
    1863           0      1992.566162    660.264709  -27753.66015     26.542919
    1864           0      1992.566162    660.264709  -28109.75781     26.937765
    1865           0      1992.566162    660.264709  -28465.85351     28.024851
    1866           0      1992.566162    660.264709  -28821.95312     27.902039
    1867           0      1950.804199    775.005005  -14578.05078    102.850311
    1868           0      1950.804199    775.005005  -14934.14843    103.861786
    1869           0      1950.804199    775.005005  -15290.24609     99.000267
    1870           0      1950.804199    775.005005  -15646.34277     94.931252
    1871           0      1950.804199    775.005005  -16002.44140     90.770050
    1872           0      1950.804199    775.005005  -16358.53808     87.063377
    1873           0      1950.804199    775.005005  -16714.63671     83.386253
    1874           0      1950.804199    775.005005  -17070.73437     79.895859
    1875           0      1950.804199    775.005005  -17426.83203     76.338860
    1876           0      1950.804199    775.005005  -17782.92968     72.887779
    1877           0      1950.804199    775.005005  -18139.02539     69.618057
    1878           0      1950.804199    775.005005  -18495.12304     66.648911
    1879           0      1950.804199    775.005005  -18851.22070     64.043526
    1880           0      1950.804199    775.005005  -19207.31835     61.826305
    1881           0      1950.804199    775.005005  -19563.41796     59.994568
    1882           0      1950.804199    775.005005  -19919.51562     58.511230
    1883           0      1950.804199    775.005005  -20275.61132     57.326065
    1884           0      1950.804199    775.005005  -20631.70898     56.371368
    1885           0      1950.804199    775.005005  -20987.80664     55.575943
    1886           0      1950.804199    775.005005  -21343.90429     54.864456
    1887           0      1950.804199    775.005005  -21700.00195     54.164730
    1888           0      1950.804199    775.005005  -22056.09765     53.407734
    1889           0      1950.804199    775.005005  -22412.19726     52.531078
    1890           0      1950.804199    775.005005  -22768.29296     51.478775
    1891           0      1950.804199    775.005005  -23124.39062     50.203861
    1892           0      1950.804199    775.005005  -23480.48828     48.668694
    1893           0      1950.804199    775.005005  -23836.58789     46.849884
    1894           0      1950.804199    775.005005  -24192.68554     44.740288
    1895           0      1950.804199    775.005005  -24548.78125     42.359467
    1896           0      1950.804199    775.005005  -24904.87890     39.758770
    1897           0      1950.804199    775.005005  -25260.97656     37.035637
    1898           0      1950.804199    775.005005  -25617.07226     34.328598
    1899           0      1950.804199    775.005005  -25973.17187     31.808891
    1900           0      1950.804199    775.005005  -26329.26953     29.624205
    1901           0      1950.804199    775.005005  -26685.36914     27.778219
    1902           0      1950.804199    775.005005  -27041.46484     26.269386
    1903           0      1950.804199    775.005005  -27397.56250     24.981833
    1904           0      1950.804199    775.005005  -27753.66015     24.212551
    1905           0      1950.804199    775.005005  -28109.75781     23.731018
    1906           0      1950.804199    775.005005  -28465.85351     23.790968
    1907           0      1950.804199    775.005005  -28821.95117     23.178949
    1908           0      1902.441162    887.123047  -14578.05078     94.603096
    1909           0      1902.441162    887.123047  -14934.14843     96.321266
    1910           0      1902.441162    887.123047  -15290.24609     92.270737
    1911           0      1902.441162    887.123047  -15646.34277     89.211960
    1912           0      1902.441162    887.123047  -16002.44140     85.816841
    1913           0      1902.441162    887.123047  -16358.53808     82.852875
    1914           0      1902.441162    887.123047  -16714.63671     79.925621
    1915           0      1902.441162    887.123047  -17070.73437     77.338890
    1916           0      1902.441162    887.123047  -17426.83007     74.819176
    1917           0      1902.441162    887.123047  -17782.92773     72.435997
    1918           0      1902.441162    887.123047  -18139.02539     70.187080
    1919           0      1902.441162    887.123047  -18495.12304     68.152512
    1920           0      1902.441162    887.123047  -18851.22070     66.376213
    1921           0      1902.441162    887.123047  -19207.31835     64.877113
    1922           0      1902.441162    887.123047  -19563.41796     63.646271
    1923           0      1902.441162    887.123047  -19919.51367     62.646725
    1924           0      1902.441162    887.123047  -20275.61132     61.826458
    1925           0      1902.441162    887.123047  -20631.70898     61.121590
    1926           0      1902.441162    887.123047  -20987.80664     60.464565
    1927           0      1902.441162    887.123047  -21343.90234     59.787861
    1928           0      1902.441162    887.123047  -21700.00000     59.027115
    1929           0      1902.441162    887.123047  -22056.09765     58.123653
    1930           0      1902.441162    887.123047  -22412.19726     57.025494
    1931           0      1902.441162    887.123047  -22768.29492     55.689087
    1932           0      1902.441162    887.123047  -23124.39062     54.080936
    1933           0      1902.441162    887.123108  -23480.48828     52.179253
    1934           0      1902.441162    887.123108  -23836.58789     49.978622
    1935           0      1902.441162    887.123108  -24192.68554     47.491619
    1936           0      1902.441162    887.123108  -24548.78125     44.758640
    1937           0      1902.441162    887.123108  -24904.87890     41.843838
    1938           0      1902.441040    887.123108  -25260.97460     38.850349
    1939           0      1902.441040    887.123108  -25617.07226     35.889008
    1940           0      1902.441040    887.123108  -25973.17187     33.083462
    1941           0      1902.441040    887.123108  -26329.26953     30.516262
    1942           0      1902.441040    887.123108  -26685.36914     28.209743
    1943           0      1902.441040    887.123108  -27041.46484     26.223480
    1944           0      1902.441040    887.123108  -27397.56250     24.518919
    1945           0      1902.441040    887.123108  -27753.66015     23.235130
    1946           0      1902.441040    887.123108  -28109.75781     22.133890
    1947           0      1902.441040    887.123108  -28465.85351     21.423479
    1948           0      1902.441162    887.123108  -28821.94921     20.431301
    1949           0      1847.640869    996.239258  -14578.05078     88.744453
    1950           0      1847.640869    996.239258  -14934.14843     91.046539
    1951           0      1847.640869    996.239258  -15290.24609     87.652946
    1952           0      1847.640869    996.239258  -15646.34277     85.391304
    1953           0      1847.640869    996.239258  -16002.44140     82.681129
    1954           0      1847.640869    996.239258  -16358.53808     80.350418
    1955           0      1847.640869    996.239258  -16714.63671     77.985222
    1956           0      1847.640869    996.239258  -17070.73437     75.971802
    1957           0      1847.640869    996.239258  -17426.83203     74.107658
    1958           0      1847.640869    996.239258  -17782.92968     72.426155
    1959           0      1847.640869    996.239258  -18139.02539     70.861938
    1960           0      1847.640869    996.239258  -18495.12304     69.438812
    1961           0      1847.640869    996.239258  -18851.22070     68.172264
    1962           0      1847.640869    996.239258  -19207.31835     67.072327
    1963           0      1847.640869    996.239258  -19563.41796     66.131279
    1964           0      1847.640869    996.239258  -19919.51562     65.320152
    1965           0      1847.640869    996.239258  -20275.61132     64.595871
    1966           0      1847.640869    996.239258  -20631.70898     63.904301
    1967           0      1847.640869    996.239258  -20987.80664     63.187092
    1968           0      1847.640869    996.239258  -21343.90234     62.385593
    1969           0      1847.640869    996.239258  -21700.00000     61.444576
    1970           0      1847.640869    996.239258  -22056.09765     60.314812
    1971           0      1847.640869    996.239258  -22412.19726     58.955124
    1972           0      1847.640869    996.239258  -22768.29296     57.333946
    1973           0      1847.640869    996.239258  -23124.39062     55.431904
    1974           0      1847.640869    996.239258  -23480.48828     53.242573
    1975           0      1847.640869    996.239258  -23836.58789     50.777428
    1976           0      1847.640869    996.239258  -24192.68359     48.064400
    1977           0      1847.640869    996.239258  -24548.78125     45.156555
    1978           0      1847.640869    996.239258  -24904.87890     42.120586
    1979           0      1847.640869    996.239258  -25260.97656     39.050217
    1980           0      1847.640869    996.239258  -25617.07421     36.035370
    1981           0      1847.640869    996.239258  -25973.17187     33.167366
    1982           0      1847.640869    996.239258  -26329.26953     30.513575
    1983           0      1847.640869    996.239258  -26685.36914     28.121441
    1984           0      1847.640869    996.239258  -27041.46484     26.045761
    1985           0      1847.640869    996.239258  -27397.56250     24.221933
    1986           0      1847.640869    996.239258  -27753.66015     22.720381
    1987           0      1847.640869    996.239258  -28109.75781     21.347290
    1988           0      1847.640869    996.239258  -28465.85351     20.316957
    1989           0      1847.640869    996.239258  -28821.95312     19.234549
    1990           0      1786.588867   1101.984619  -14578.05078     85.353226
    1991           0      1786.588867   1101.984619  -14934.14843     88.120987
    1992           0      1786.588867   1101.984619  -15290.24609     85.218102
    1993           0      1786.588867   1101.984619  -15646.34277     83.516296
    1994           0      1786.588867   1101.984619  -16002.44140     81.352394
    1995           0      1786.588867   1101.984619  -16358.53808     79.522293
    1996           0      1786.588867   1101.984619  -16714.63671     77.599106
    1997           0      1786.588867   1101.984619  -17070.73437     75.955795
    1998           0      1786.588867   1101.984619  -17426.83203     74.466881
    1999           0      1786.588867   1101.984619  -17782.92968     73.181030
    2000           0      1786.588867   1101.984619  -18139.02539     72.015785
    2001           0      1786.588867   1101.984619  -18495.12304     70.947365
    2002           0      1786.588867   1101.984619  -18851.22070     69.955376
    2003           0      1786.588867   1101.984619  -19207.31835     69.031456
    2004           0      1786.588867   1101.984619  -19563.41796     68.164200
    2005           0      1786.588867   1101.984619  -19919.51562     67.332916
    2006           0      1786.588867   1101.984619  -20275.61132     66.507317
    2007           0      1786.588867   1101.984619  -20631.70898     65.648994
    2008           0      1786.588867   1101.984619  -20987.80664     64.714455
    2009           0      1786.588867   1101.984619  -21343.90429     63.659523
    2010           0      1786.588867   1101.984619  -21700.00195     62.441692
    2011           0      1786.588867   1101.984619  -22056.09765     61.024113
    2012           0      1786.588867   1101.984619  -22412.19726     59.376949
    2013           0      1786.588867   1101.984619  -22768.29296     57.480438
    2014           0      1786.588867   1101.984619  -23124.39062     55.326019
    2015           0      1786.588867   1101.984619  -23480.48828     52.918423
    2016           0      1786.588867   1101.984619  -23836.58789     50.277466
    2017           0      1786.588867   1101.984619  -24192.68554     47.437382
    2018           0      1786.588867   1101.984619  -24548.78125     44.450630
    2019           0      1786.588867   1101.984619  -24904.87890     41.378941
    2020           0      1786.588867   1101.984619  -25260.97656     38.302067
    2021           0      1786.588867   1101.984619  -25617.07226     35.296410
    2022           0      1786.588867   1101.984619  -25973.17187     32.446796
    2023           0      1786.588867   1101.984619  -26329.26953     29.820076
    2024           0      1786.588867   1101.984619  -26685.36914     27.461426
    2025           0      1786.588867   1101.984619  -27041.46484     25.403337
    2026           0      1786.588867   1101.984619  -27397.56250     23.568466
    2027           0      1786.588867   1101.984619  -27753.66015     22.048571
    2028           0      1786.588867   1101.984619  -28109.75781     20.693670
    2029           0      1786.588867   1101.984619  -28465.85351     19.739584
    2030           0      1786.588867   1101.984619  -28821.95117     18.895788
    2031           0      1719.491455   1204.001221  -14578.05078     84.322052
    2032           0      1719.491455   1204.001221  -14934.14843     87.444885
    2033           0      1719.491455   1204.001221  -15290.24609     84.866295
    2034           0      1719.491455   1204.001221  -15646.34277     83.490952
    2035           0      1719.491455   1204.001221  -16002.44140     81.707680
    2036           0      1719.491455   1204.001221  -16358.53808     80.210960
    2037           0      1719.491455   1204.001221  -16714.63671     78.607498
    2038           0      1719.491455   1204.001221  -17070.73437     77.196655
    2039           0      1719.491455   1204.001221  -17426.83007     75.899185
    2040           0      1719.491455   1204.001221  -17782.92773     74.784416
    2041           0      1719.491455   1204.001221  -18139.02539     73.793365
    2042           0      1719.491455   1204.001221  -18495.12304     72.884171
    2043           0      1719.491455   1204.001221  -18851.22070     72.009422
    2044           0      1719.491455   1204.001221  -19207.31835     71.137085
    2045           0      1719.491455   1204.001221  -19563.41796     70.242989
    2046           0      1719.491455   1204.001221  -19919.51367     69.305801
    2047           0      1719.491455   1204.001221  -20275.61132     68.302948
    2048           0      1719.491455   1204.001221  -20631.70898     67.209442
    2049           0      1719.491455   1204.001221  -20987.80664     65.997589
    2050           0      1719.491455   1204.001221  -21343.90234     64.639313
    2051           0      1719.491455   1204.001221  -21700.00000     63.107491
    2052           0      1719.491455   1204.001221  -22056.09765     61.379055
    2053           0      1719.491455   1204.001221  -22412.19726     59.436249
    2054           0      1719.491455   1204.001221  -22768.29492     57.269436
    2055           0      1719.491455   1204.001221  -23124.39062     54.877792
    2056           0      1719.491455   1204.001221  -23480.48828     52.271515
    2057           0      1719.491455   1204.001221  -23836.58789     49.472107
    2058           0      1719.491455   1204.001221  -24192.68554     46.513195
    2059           0      1719.491455   1204.001221  -24548.78125     43.441292
    2060           0      1719.491455   1204.001221  -24904.87890     40.313534
    2061           0      1719.491455   1204.001221  -25260.97460     37.200924
    2062           0      1719.491455   1204.001221  -25617.07226     34.177006
    2063           0      1719.491455   1204.001221  -25973.17187     31.323284
    2064           0      1719.491455   1204.001221  -26329.26953     28.702387
    2065           0      1719.491455   1204.001221  -26685.36914     26.339340
    2066           0      1719.491455   1204.001221  -27041.46484     24.268791
    2067           0      1719.491455   1204.001221  -27397.56250     22.429026
    2068           0      1719.491455   1204.001221  -27753.66015     20.971390
    2069           0      1719.491455   1204.001221  -28109.75781     19.780350
    2070           0      1719.491455   1204.001221  -28465.85351     19.104660
    2071           0      1719.491455   1204.001221  -28821.94921     18.712791
    2072           0      1646.575928   1301.943604  -14578.05078     85.396927
    2073           0      1646.575928   1301.943604  -14934.14843     88.770210
    2074           0      1646.575928   1301.943604  -15290.24609     86.356956
    2075           0      1646.575928   1301.943604  -15646.34277     85.092766
    2076           0      1646.575928   1301.943604  -16002.44140     83.522781
    2077           0      1646.575928   1301.943604  -16358.53808     82.179367
    2078           0      1646.575928   1301.943604  -16714.63671     80.755287
    2079           0      1646.575928   1301.943604  -17070.73437     79.454460
    2080           0      1646.575928   1301.943604  -17426.83203     78.221970
    2081           0      1646.575928   1301.943604  -17782.92968     77.125275
    2082           0      1646.575928   1301.943604  -18139.02539     76.141663
    2083           0      1646.575928   1301.943604  -18495.12304     75.238113
    2084           0      1646.575928   1301.943604  -18851.22070     74.362129
    2085           0      1646.575928   1301.943604  -19207.31835     73.465073
    2086           0      1646.575928   1301.943604  -19563.41796     72.507332
    2087           0      1646.575928   1301.943604  -19919.51562     71.458046
    2088           0      1646.575928   1301.943604  -20275.61132     70.292664
    2089           0      1646.575928   1301.943604  -20631.70898     68.990700
    2090           0      1646.575928   1301.943604  -20987.80664     67.533577
    2091           0      1646.575928   1301.943604  -21343.90234     65.904816
    2092           0      1646.575928   1301.943604  -21700.00000     64.089729
    2093           0      1646.575928   1301.943604  -22056.09765     62.076935
    2094           0      1646.575928   1301.943604  -22412.19726     59.858940
    2095           0      1646.575928   1301.943604  -22768.29296     57.434200
    2096           0      1646.575928   1301.943604  -23124.39062     54.807400
    2097           0      1646.575928   1301.943604  -23480.48828     51.991894
    2098           0      1646.575928   1301.943604  -23836.58789     49.009472
    2099           0      1646.575928   1301.943604  -24192.68359     45.893192
    2100           0      1646.575928   1301.943604  -24548.78125     42.686783
    2101           0      1646.575928   1301.943726  -24904.87890     39.447048
    2102           0      1646.575928   1301.943726  -25260.97656     36.240906
    2103           0      1646.575928   1301.943726  -25617.07421     33.141022
    2104           0      1646.575928   1301.943726  -25973.17187     30.213440
    2105           0      1646.575928   1301.943726  -26329.26953     27.510340
    2106           0      1646.575928   1301.943726  -26685.36914     25.039309
    2107           0      1646.575928   1301.943726  -27041.46484     22.862097
    2108           0      1646.575928   1301.943726  -27397.56250     20.943726
    2109           0      1646.575928   1301.943726  -27753.66015     19.503914
    2110           0      1646.575928   1301.943726  -28109.75781     18.460976
    2111           0      1646.575928   1301.943726  -28465.85351     18.063244
    2112           0      1646.575928   1301.943604  -28821.95312     18.169220
    2113           0      1568.088867   1395.480957  -14578.05078     88.213188
    2114           0      1568.088867   1395.480957  -14934.14843     91.736038
    2115           0      1568.088867   1395.480957  -15290.24609     89.343521
    2116           0      1568.088867   1395.480957  -15646.34277     88.001358
    2117           0      1568.088867   1395.480957  -16002.44140     86.489479
    2118           0      1568.088867   1395.480957  -16358.53808     85.129333
    2119           0      1568.088867   1395.480957  -16714.63671     83.738388
    2120           0      1568.088867   1395.480957  -17070.73437     82.424057
    2121           0      1568.088867   1395.480957  -17426.83203     81.151978
    2122           0      1568.088867   1395.480957  -17782.92968     79.966141
    2123           0      1568.088867   1395.480957  -18139.02539     78.870636
    2124           0      1568.088867   1395.480957  -18495.12304     77.850731
    2125           0      1568.088867   1395.480957  -18851.22070     76.868263
    2126           0      1568.088867   1395.480957  -19207.31835     75.873329
    2127           0      1568.088867   1395.480957  -19563.41796     74.817894
    2128           0      1568.088867   1395.480957  -19919.51562     73.660240
    2129           0      1568.088867   1395.480957  -20275.61132     72.367279
    2130           0      1568.088867   1395.480957  -20631.70898     70.913963
    2131           0      1568.088867   1395.480957  -20987.80664     69.281487
    2132           0      1568.088867   1395.480957  -21343.90429     67.456383
    2133           0      1568.088867   1395.480957  -21700.00195     65.429291
    2134           0      1568.088867   1395.480957  -22056.09765     63.195095
    2135           0      1568.088867   1395.480957  -22412.19726     60.752674
    2136           0      1568.088867   1395.480957  -22768.29296     58.106190
    2137           0      1568.088867   1395.480957  -23124.39062     55.265125
    2138           0      1568.088867   1395.480957  -23480.48828     52.246815
    2139           0      1568.088867   1395.480957  -23836.58789     49.076035
    2140           0      1568.088867   1395.480957  -24192.68554     45.789051
    2141           0      1568.088867   1395.480957  -24548.78125     42.430973
    2142           0      1568.088867   1395.480957  -24904.87890     39.059734
    2143           0      1568.088867   1395.480957  -25260.97656     35.735565
    2144           0      1568.088867   1395.480957  -25617.07226     32.521427
    2145           0      1568.088867   1395.480957  -25973.17187     29.458324
    2146           0      1568.088867   1395.480957  -26329.26953     26.585735
    2147           0      1568.088867   1395.480957  -26685.36914     23.902994
    2148           0      1568.088867   1395.480957  -27041.46484     21.503536
    2149           0      1568.088867   1395.480957  -27397.56250     19.377356
    2150           0      1568.088867   1395.480957  -27753.66015     17.807827
    2151           0      1568.088867   1395.480957  -28109.75781     16.756666
    2152           0      1568.088867   1395.480957  -28465.85351     16.480906
    2153           0      1568.088867   1395.480957  -28821.95117     16.978617
    2154           0      1484.295898   1484.296265  -14578.05078     92.329796
    2155           0      1484.295898   1484.296265  -14934.14843     95.909554
    2156           0      1484.295898   1484.296265  -15290.24609     93.411560
    2157           0      1484.295898   1484.296265  -15646.34277     91.835930
    2158           0      1484.295898   1484.296265  -16002.44140     90.246437
    2159           0      1484.295898   1484.296265  -16358.53808     88.723976
    2160           0      1484.295898   1484.296265  -16714.63671     87.230400
    2161           0      1484.295898   1484.296265  -17070.73437     85.783203
    2162           0      1484.295898   1484.296265  -17426.83007     84.373802
    2163           0      1484.295898   1484.296265  -17782.92773     83.014160
    2164           0      1484.295898   1484.296265  -18139.02539     81.720184
    2165           0      1484.295898   1484.296265  -18495.12304     80.489578
    2166           0      1484.295898   1484.296265  -18851.22070     79.305283
    2167           0      1484.295898   1484.296265  -19207.31835     78.129196
    2168           0      1484.295898   1484.296265  -19563.41796     76.916496
    2169           0      1484.295898   1484.296265  -19919.51367     75.621048
    2170           0      1484.295898   1484.296265  -20275.61132     74.202019
    2171           0      1484.295898   1484.296265  -20631.70898     72.626152
    2172           0      1484.295776   1484.296265  -20987.80664     70.868088
    2173           0      1484.295776   1484.296265  -21343.90234     68.910225
    2174           0      1484.295776   1484.296265  -21700.00000     66.741577
    2175           0      1484.295776   1484.296265  -22056.09765     64.357536
    2176           0      1484.295776   1484.296265  -22412.19726     61.759224
    2177           0      1484.295776   1484.296265  -22768.29492     58.954269
    2178           0      1484.295776   1484.296265  -23124.39062     55.956589
    2179           0      1484.295776   1484.296265  -23480.48828     52.788593
    2180           0      1484.295776   1484.296265  -23836.58789     49.480145
    2181           0      1484.295776   1484.296265  -24192.68554     46.071896
    2182           0      1484.295776   1484.296265  -24548.78125     42.609982
    2183           0      1484.295776   1484.296265  -24904.87890     39.148628
    2184           0      1484.295776   1484.296265  -25260.97460     35.734703
    2185           0      1484.295776   1484.296265  -25617.07226     32.412086
    2186           0      1484.295776   1484.296265  -25973.17187     29.196865
    2187           0      1484.295776   1484.296265  -26329.26953     26.116970
    2188           0      1484.295776   1484.296387  -26685.36914     23.169722
    2189           0      1484.295776   1484.296387  -27041.46484     20.463530
    2190           0      1484.295776   1484.296387  -27397.56250     18.003456
    2191           0      1484.295776   1484.296387  -27753.66015     16.113302
    2192           0      1484.295776   1484.296387  -28109.75781     14.807871
    2193           0      1484.295776   1484.296387  -28465.85351     14.400200
    2194           0      1484.295776   1484.296387  -28821.94921     15.064896
    2195           0      1395.480469   1568.089111  -14578.05078     97.269493
    2196           0      1395.480469   1568.089111  -14934.14843    100.826546
    2197           0      1395.480469   1568.089111  -15290.24609     98.120010
    2198           0      1395.480469   1568.089111  -15646.34277     96.194374
    2199           0      1395.480469   1568.089111  -16002.44140     94.416565
    2200           0      1395.480469   1568.089111  -16358.53808     92.618103
    2201           0      1395.480469   1568.089111  -16714.63671     90.908745
    2202           0      1395.480469   1568.089111  -17070.73437     89.224525
    2203           0      1395.480469   1568.089233  -17426.83203     87.588150
    2204           0      1395.480469   1568.089233  -17782.92968     85.981644
    2205           0      1395.480469   1568.089233  -18139.02539     84.423157
    2206           0      1395.480469   1568.089233  -18495.12304     82.911911
    2207           0      1395.480469   1568.089233  -18851.22070     81.447418
    2208           0      1395.480469   1568.089233  -19207.31835     80.007584
    2209           0      1395.480469   1568.089233  -19563.41796     78.560013
    2210           0      1395.480469   1568.089233  -19919.51562     77.063293
    2211           0      1395.480469   1568.089233  -20275.61132     75.475517
    2212           0      1395.480469   1568.089233  -20631.70898     73.758102
    2213           0      1395.480469   1568.089233  -20987.80664     71.879036
    2214           0      1395.480469   1568.089233  -21343.90234     69.814110
    2215           0      1395.480469   1568.089233  -21700.00000     67.547394
    2216           0      1395.480469   1568.089233  -22056.09765     65.071259
    2217           0      1395.480469   1568.089233  -22412.19726     62.386108
    2218           0      1395.480469   1568.089233  -22768.29296     59.500820
    2219           0      1395.480469   1568.089233  -23124.39062     56.432323
    2220           0      1395.480469   1568.089233  -23480.48828     53.206600
    2221           0      1395.480469   1568.089233  -23836.58789     49.856796
    2222           0      1395.480469   1568.089233  -24192.68359     46.423977
    2223           0      1395.480469   1568.089233  -24548.78125     42.950218
    2224           0      1395.480469   1568.089233  -24904.87890     39.478436
    2225           0      1395.480469   1568.089233  -25260.97656     36.037945
    2226           0      1395.480469   1568.089233  -25617.07421     32.651451
    2227           0      1395.480469   1568.089233  -25973.17187     29.319353
    2228           0      1395.480469   1568.089233  -26329.26953     26.060347
    2229           0      1395.480469   1568.089233  -26685.36914     22.873930
    2230           0      1395.480469   1568.089233  -27041.46484     19.857409
    2231           0      1395.480469   1568.089233  -27397.56250     17.018101
    2232           0      1395.480469   1568.089233  -27753.66015     14.668520
    2233           0      1395.480469   1568.089233  -28109.75781     12.861898
    2234           0      1395.480225   1568.089233  -28465.85351     12.024538
    2235           0      1395.480469   1568.089233  -28821.95312     12.536919
    2236           0      1301.943237   1646.576172  -14578.05078    102.559067
    2237           0      1301.943237   1646.576172  -14934.14843    106.030022
    2238           0      1301.943237   1646.576172  -15290.24609    103.040283
    2239           0      1301.943237   1646.576172  -15646.34277    100.689964
    2240           0      1301.943237   1646.576172  -16002.44140     98.641861
    2241           0      1301.943237   1646.576172  -16358.53808     96.489487
    2242           0      1301.943237   1646.576172  -16714.63671     94.480453
    2243           0      1301.943237   1646.576172  -17070.73437     92.480133
    2244           0      1301.943237   1646.576172  -17426.83203     90.542976
    2245           0      1301.943237   1646.576172  -17782.92968     88.628738
    2246           0      1301.943237   1646.576172  -18139.02539     86.754601
    2247           0      1301.943237   1646.576172  -18495.12304     84.914154
    2248           0      1301.943237   1646.576172  -18851.22070     83.114372
    2249           0      1301.943237   1646.576172  -19207.31835     81.345726
    2250           0      1301.943237   1646.576172  -19563.41796     79.590767
    2251           0      1301.943237   1646.576172  -19919.51562     77.819717
    2252           0      1301.943237   1646.576172  -20275.61132     75.997482
    2253           0      1301.943237   1646.576172  -20631.70898     74.087181
    2254           0      1301.943237   1646.576172  -20987.80664     72.054985
    2255           0      1301.943237   1646.576172  -21343.90429     69.872879
    2256           0      1301.943237   1646.576172  -21700.00195     67.520737
    2257           0      1301.943237   1646.576172  -22056.09765     64.987343
    2258           0      1301.943237   1646.576172  -22412.19726     62.270889
    2259           0      1301.943237   1646.576172  -22768.29296     59.379147
    2260           0      1301.943237   1646.576172  -23124.39062     56.328846
    2261           0      1301.943237   1646.576172  -23480.48828     53.145134
    2262           0      1301.943237   1646.576172  -23836.58789     49.858932
    2263           0      1301.943237   1646.576172  -24192.68554     46.504822
    2264           0      1301.943237   1646.576172  -24548.78125     43.114559
    2265           0      1301.943237   1646.576172  -24904.87890     39.714893
    2266           0      1301.943237   1646.576172  -25260.97656     36.319244
    2267           0      1301.943237   1646.576172  -25617.07226     32.934563
    2268           0      1301.943237   1646.576172  -25973.17187     29.557547
    2269           0      1301.943237   1646.576172  -26329.26953     26.200275
    2270           0      1301.943237   1646.576172  -26685.36914     22.868624
    2271           0      1301.943237   1646.576172  -27041.46484     19.630085
    2272           0      1301.943237   1646.576172  -27397.56250     16.490587
    2273           0      1301.943237   1646.576172  -27753.66015     13.688745
    2274           0      1301.943237   1646.576172  -28109.75781     11.265795
    2275           0      1301.943237   1646.576172  -28465.85351      9.734029
    2276           0      1301.943237   1646.576172  -28821.95117      9.676248
    2277           0      1204.000732   1719.491699  -14578.05078    107.766090
    2278           0      1204.000732   1719.491699  -14934.14843    111.107666
    2279           0      1204.000732   1719.491699  -15290.24609    107.790344
    2280           0      1204.000732   1719.491699  -15646.34277    104.982323
    2281           0      1204.000732   1719.491699  -16002.44140    102.612907
    2282           0      1204.000732   1719.491699  -16358.53808    100.065102
    2283           0      1204.000732   1719.491699  -16714.63671     97.704788
    2284           0      1204.000732   1719.491699  -17070.73437     95.339844
    2285           0      1204.000732   1719.491699  -17426.83007     93.052071
    2286           0      1204.000732   1719.491699  -17782.92773     90.787407
    2287           0      1204.000732   1719.491699  -18139.02539     88.562660
    2288           0      1204.000732   1719.491699  -18495.12304     86.364365
    2289           0      1204.000732   1719.491699  -18851.22070     84.199829
    2290           0      1204.000732   1719.491699  -19207.31835     82.065697
    2291           0      1204.000732   1719.491699  -19563.41796     79.956383
    2292           0      1204.000732   1719.491699  -19919.51367     77.855606
    2293           0      1204.000732   1719.491699  -20275.61132     75.740257
    2294           0      1204.000732   1719.491699  -20631.70898     73.582130
    2295           0      1204.000732   1719.491699  -20987.80664     71.352303
    2296           0      1204.000732   1719.491699  -21343.90234     69.024498
    2297           0      1204.000732   1719.491699  -21700.00000     66.578064
    2298           0      1204.000732   1719.491699  -22056.09765     63.999943
    2299           0      1204.000732   1719.491699  -22412.19726     61.285732
    2300           0      1204.000732   1719.491699  -22768.29492     58.439831
    2301           0      1204.000732   1719.491699  -23124.39062     55.474796
    2302           0      1204.000732   1719.491699  -23480.48828     52.409424
    2303           0      1204.000732   1719.491699  -23836.58789     49.266090
    2304           0      1204.000732   1719.491699  -24192.68554     46.067059
    2305           0      1204.000732   1719.491699  -24548.78125     42.830257
    2306           0      1204.000732   1719.491699  -24904.87890     39.566746
    2307           0      1204.000732   1719.491699  -25260.97460     36.279976
    2308           0      1204.000732   1719.491699  -25617.07226     32.969265
    2309           0      1204.000732   1719.491699  -25973.17187     29.636292
    2310           0      1204.000732   1719.491699  -26329.26953     26.288486
    2311           0      1204.000732   1719.491699  -26685.36914     22.941847
    2312           0      1204.000732   1719.491699  -27041.46484     19.629601
    2313           0      1204.000732   1719.491699  -27397.56250     16.367479
    2314           0      1204.000732   1719.491699  -27753.66015     13.286893
    2315           0      1204.000732   1719.491699  -28109.75781     10.389233
    2316           0      1204.000732   1719.491699  -28465.85351      8.107685
    2317           0      1204.000732   1719.491699  -28821.94921      6.980147
    2318           0      1101.984131   1786.588989  -14578.05078    112.530273
    2319           0      1101.984131   1786.588989  -14934.14843    115.721298
    2320           0      1101.984131   1786.588989  -15290.24609    112.060379
    2321           0      1101.984131   1786.588989  -15646.34277    108.800552
    2322           0      1101.984131   1786.588989  -16002.44140    106.089088
    2323           0      1101.984131   1786.588989  -16358.53808    103.138634
    2324           0      1101.984131   1786.588989  -16714.63671    100.407814
    2325           0      1101.984131   1786.588989  -17070.73437     97.661652
    2326           0      1101.984131   1786.588989  -17426.83203     95.002365
    2327           0      1101.984131   1786.588989  -17782.92968     92.368790
    2328           0      1101.984131   1786.588989  -18139.02539     89.779091
    2329           0      1101.984131   1786.588989  -18495.12304     87.215126
    2330           0      1101.984131   1786.588989  -18851.22070     84.681747
    2331           0      1101.984131   1786.588989  -19207.31835     82.176697
    2332           0      1101.984131   1786.588989  -19563.41796     79.701141
    2333           0      1101.984131   1786.588989  -19919.51562     77.249687
    2334           0      1101.984131   1786.588989  -20275.61132     74.812134
    2335           0      1101.984131   1786.588989  -20631.70898     72.372482
    2336           0      1101.984131   1786.588989  -20987.80664     69.911934
    2337           0      1101.984131   1786.588989  -21343.90234     67.411171
    2338           0      1101.984131   1786.588989  -21700.00000     64.853363
    2339           0      1101.984131   1786.588989  -22056.09765     62.226215
    2340           0      1101.984131   1786.588989  -22412.19726     59.523396
    2341           0      1101.984131   1786.588989  -22768.29296     56.744545
    2342           0      1101.984131   1786.588989  -23124.39062     53.894951
    2343           0      1101.984131   1786.588989  -23480.48828     50.983170
    2344           0      1101.984131   1786.588989  -23836.58789     48.019245
    2345           0      1101.984131   1786.588989  -24192.68359     45.011055
    2346           0      1101.984131   1786.588989  -24548.78125     41.963608
    2347           0      1101.984131   1786.588989  -24904.87890     38.876705
    2348           0      1101.984131   1786.588989  -25260.97656     35.750389
    2349           0      1101.984131   1786.588989  -25617.07421     32.582539
    2350           0      1101.984131   1786.588989  -25973.17187     29.382866
    2351           0      1101.984131   1786.588989  -26329.26953     26.155128
    2352           0      1101.984131   1786.588989  -26685.36914     22.927052
    2353           0      1101.984131   1786.588989  -27041.46484     19.702896
    2354           0      1101.984131   1786.588989  -27397.56250     16.523741
    2355           0      1101.984131   1786.588989  -27753.66015     13.420578
    2356           0      1101.984131   1786.588989  -28109.75781     10.405256
    2357           0      1101.984131   1786.588989  -28465.85351      7.719088
    2358           0      1101.984131   1786.588989  -28821.95312      5.321790
    2359           0       996.238892   1847.641113  -14578.05078    116.586456
    2360           0       996.238892   1847.641113  -14934.14843    119.622337
    2361           0       996.238892   1847.641113  -15290.24609    115.629387
    2362           0       996.238892   1847.641113  -15646.34277    111.955177
    2363           0       996.238892   1847.641113  -16002.44140    108.908348
    2364           0       996.238892   1847.641113  -16358.53808    105.578125
    2365           0       996.238892   1847.641113  -16714.63671    102.486603
    2366           0       996.238892   1847.641113  -17070.73437     99.372704
    2367           0       996.238892   1847.641113  -17426.83203     96.350143
    2368           0       996.238892   1847.641113  -17782.92968     93.356506
    2369           0       996.238892   1847.641113  -18139.02539     90.411545
    2370           0       996.238892   1847.641113  -18495.12304     87.496483
    2371           0       996.238892   1847.641113  -18851.22070     84.614059
    2372           0       996.238892   1847.641113  -19207.31835     81.761292
    2373           0       996.238892   1847.641113  -19563.41796     78.941673
    2374           0       996.238892   1847.641113  -19919.51562     76.156509
    2375           0       996.238892   1847.641113  -20275.61132     73.405563
    2376           0       996.238892   1847.641113  -20631.70898     70.684631
    2377           0       996.238892   1847.641113  -20987.80664     67.986320
    2378           0       996.238892   1847.641113  -21343.90429     65.300957
    2379           0       996.238892   1847.641113  -21700.00195     62.618393
    2380           0       996.238892   1847.641113  -22056.09765     59.929394
    2381           0       996.238892   1847.641113  -22412.19726     57.226898
    2382           0       996.238892   1847.641113  -22768.29296     54.506077
    2383           0       996.238892   1847.641113  -23124.39062     51.764297
    2384           0       996.238892   1847.641113  -23480.48828     48.999439
    2385           0       996.238892   1847.641113  -23836.58789     46.209549
    2386           0       996.238892   1847.641113  -24192.68554     43.390533
    2387           0       996.238892   1847.641113  -24548.78125     40.538513
    2388           0       996.238892   1847.641113  -24904.87890     37.647678
    2389           0       996.238892   1847.641113  -25260.97656     34.718769
    2390           0       996.238892   1847.641113  -25617.07226     31.750872
    2391           0       996.238892   1847.641113  -25973.17187     28.760036
    2392           0       996.238892   1847.641113  -26329.26953     25.746830
    2393           0       996.238892   1847.641113  -26685.36914     22.748783
    2394           0       996.238892   1847.641113  -27041.46484     19.749435
    2395           0       996.238892   1847.641113  -27397.56250     16.820892
    2396           0       996.238892   1847.641113  -27753.66015     13.916871
    2397           0       996.238892   1847.641113  -28109.75781     11.122152
    2398           0       996.238892   1847.641113  -28465.85351      8.521102
    2399           0       996.238892   1847.641113  -28821.95117      5.549598
    2400           0       887.122559   1902.441284  -14578.05078    119.770615
    2401           0       887.122559   1902.441284  -14934.14843    122.663025
    2402           0       887.122559   1902.441284  -15290.24609    118.369476
    2403           0       887.122559   1902.441284  -15646.34277    114.342308
    2404           0       887.122559   1902.441284  -16002.44140    110.988655
    2405           0       887.122559   1902.441284  -16358.53808    107.325081
    2406           0       887.122559   1902.441284  -16714.63671    103.906525
    2407           0       887.122559   1902.441284  -17070.73437    100.463242
    2408           0       887.122559   1902.441284  -17426.83007     97.111305
    2409           0       887.122559   1902.441284  -17782.92773     93.792053
    2410           0       887.122559   1902.441284  -18139.02539     90.525696
    2411           0       887.122559   1902.441284  -18495.12304     87.296272
    2412           0       887.122559   1902.441284  -18851.22070     84.105904
    2413           0       887.122559   1902.441284  -19207.31835     80.951546
    2414           0       887.122559   1902.441284  -19563.41796     77.836823
    2415           0       887.122559   1902.441284  -19919.51367     74.765869
    2416           0       887.122559   1902.441284  -20275.61132     71.744171
    2417           0       887.122559   1902.441284  -20631.70898     68.775604
    2418           0       887.122559   1902.441284  -20987.80664     65.862022
    2419           0       887.122559   1902.441284  -21343.90234     63.002533
    2420           0       887.122559   1902.441284  -21700.00000     60.193954
    2421           0       887.122559   1902.441284  -22056.09765     57.431198
    2422           0       887.122559   1902.441284  -22412.19726     54.707878
    2423           0       887.122559   1902.441284  -22768.29492     52.016476
    2424           0       887.122559   1902.441284  -23124.39062     49.348610
    2425           0       887.122498   1902.441284  -23480.48828     46.694653
    2426           0       887.122498   1902.441284  -23836.58789     44.044674
    2427           0       887.122498   1902.441284  -24192.68554     41.387901
    2428           0       887.122498   1902.441284  -24548.78125     38.716507
    2429           0       887.122498   1902.441284  -24904.87890     36.023571
    2430           0       887.122498   1902.441284  -25260.97460     33.311432
    2431           0       887.122498   1902.441284  -25617.07226     30.580299
    2432           0       887.122498   1902.441284  -25973.17187     27.848383
    2433           0       887.122498   1902.441284  -26329.26953     25.113293
    2434           0       887.122498   1902.441284  -26685.36914     22.417078
    2435           0       887.122498   1902.441284  -27041.46484     19.729685
    2436           0       887.122498   1902.441284  -27397.56250     17.146202
    2437           0       887.122498   1902.441284  -27753.66015     14.564875
    2438           0       887.122498   1902.441284  -28109.75781     12.152864
    2439           0       887.122498   1902.441284  -28465.85351      9.873946
    2440           0       887.122498   1902.441284  -28821.94921      7.011073
    2441           0       775.004578   1950.804199  -14578.05078    122.021065
    2442           0       775.004578   1950.804199  -14934.14843    124.790848
    2443           0       775.004578   1950.804199  -15290.24609    120.243034
    2444           0       775.004578   1950.804199  -15646.34277    115.937294
    2445           0       775.004578   1950.804199  -16002.44140    112.321465
    2446           0       775.004578   1950.804199  -16358.53808    108.385780
    2447           0       775.004578   1950.804199  -16714.63671    104.691246
    2448           0       775.004578   1950.804199  -17070.73437    100.974258
    2449           0       775.004578   1950.804199  -17426.83203     97.346008
    2450           0       775.004578   1950.804199  -17782.92968     93.755211
    2451           0       775.004578   1950.804199  -18139.02539     90.221146
    2452           0       775.004578   1950.804199  -18495.12304     86.732475
    2453           0       775.004578   1950.804199  -18851.22070     83.291954
    2454           0       775.004578   1950.804199  -19207.31835     79.897812
    2455           0       775.004578   1950.804199  -19563.41796     76.553406
    2456           0       775.004578   1950.804199  -19919.51562     73.263451
    2457           0       775.004578   1950.804199  -20275.61132     70.035194
    2458           0       775.004578   1950.804199  -20631.70898     66.876129
    2459           0       775.004578   1950.804199  -20987.80664     63.793064
    2460           0       775.004578   1950.804199  -21343.90234     60.790615
    2461           0       775.004517   1950.804199  -21700.00000     57.870647
    2462           0       775.004517   1950.804199  -22056.09765     55.031708
    2463           0       775.004517   1950.804199  -22412.19726     52.269176
    2464           0       775.004517   1950.804199  -22768.29296     49.575302
    2465           0       775.004517   1950.804199  -23124.39062     46.939957
    2466           0       775.004517   1950.804199  -23480.48828     44.351025
    2467           0       775.004517   1950.804199  -23836.58789     41.796318
    2468           0       775.004517   1950.804199  -24192.68359     39.264080
    2469           0       775.004517   1950.804199  -24548.78125     36.746609
    2470           0       775.004517   1950.804199  -24904.87890     34.238205
    2471           0       775.004517   1950.804199  -25260.97656     31.741734
    2472           0       775.004517   1950.804199  -25617.07421     29.257214
    2473           0       775.004517   1950.804199  -25973.17187     26.800627
    2474           0       775.004517   1950.804199  -26329.26953     24.366755
    2475           0       775.004517   1950.804199  -26685.36914     21.995014
    2476           0       775.004517   1950.804199  -27041.46484     19.647417
    2477           0       775.004517   1950.804199  -27397.56250     17.426085
    2478           0       775.004517   1950.804199  -27753.66015     15.194027
    2479           0       775.004517   1950.804199  -28109.75781     13.173235
    2480           0       775.004517   1950.804199  -28465.85351     11.234017
    2481           0       775.004517   1950.804199  -28821.95312      8.637582
    2482           0       660.264221   1992.566406  -14578.05078    123.364807
    2483           0       660.264221   1992.566406  -14934.14843    126.036812
    2484           0       660.264221   1992.566406  -15290.24609    121.289139
    2485           0       660.264221   1992.566406  -15646.34277    116.782417
    2486           0       660.264221   1992.566406  -16002.44140    112.958008
    2487           0       660.264221   1992.566406  -16358.53808    108.817955
    2488           0       660.264221   1992.566406  -16714.63671    104.907738
    2489           0       660.264221   1992.566406  -17070.73437    100.981842
    2490           0       660.264221   1992.566406  -17426.83203     97.140915
    2491           0       660.264221   1992.566406  -17782.92968     93.343895
    2492           0       660.264221   1992.566406  -18139.02539     89.607491
    2493           0       660.264221   1992.566406  -18495.12304     85.925743
    2494           0       660.264221   1992.566406  -18851.22070     82.302200
    2495           0       660.264221   1992.566406  -19207.31835     78.737366
    2496           0       660.264221   1992.566406  -19563.41796     75.234467
    2497           0       660.264221   1992.566406  -19919.51562     71.797958
    2498           0       660.264221   1992.566406  -20275.61132     68.434334
    2499           0       660.264221   1992.566406  -20631.70898     65.151131
    2500           0       660.264221   1992.566406  -20987.80664     61.955925
    2501           0       660.264221   1992.566406  -21343.90429     58.855045
    2502           0       660.264221   1992.566406  -21700.00195     55.852436
    2503           0       660.264221   1992.566406  -22056.09765     52.948963
    2504           0       660.264221   1992.566406  -22412.19726     50.142101
    2505           0       660.264221   1992.566406  -22768.29296     47.426014
    2506           0       660.264221   1992.566406  -23124.39062     44.792469
    2507           0       660.264221   1992.566406  -23480.48828     42.231552
    2508           0       660.264221   1992.566406  -23836.58789     39.733631
    2509           0       660.264221   1992.566406  -24192.68554     37.290005
    2510           0       660.264221   1992.566406  -24548.78125     34.895298
    2511           0       660.264221   1992.566406  -24904.87890     32.545689
    2512           0       660.264221   1992.566406  -25260.97656     30.243013
    2513           0       660.264221   1992.566406  -25617.07226     27.986122
    2514           0       660.264221   1992.566406  -25973.17187     25.785450
    2515           0       660.264221   1992.566406  -26329.26953     23.633579
    2516           0       660.264221   1992.566406  -26685.36914     21.560743
    2517           0       660.264160   1992.566406  -27041.46484     19.526514
    2518           0       660.264160   1992.566406  -27397.56250     17.624279
    2519           0       660.264160   1992.566406  -27753.66015     15.703083
    2520           0       660.264160   1992.566406  -28109.75781     14.005039
    2521           0       660.264160   1992.566406  -28465.85351     12.344666
    2522           0       660.264221   1992.566406  -28821.95117      9.987620
    2523           0       543.289673   2027.586182  -14578.05078    123.897957
    2524           0       543.289673   2027.586182  -14934.14843    126.496490
    2525           0       543.289673   2027.586182  -15290.24609    121.604347
    2526           0       543.289673   2027.586182  -15646.34277    116.969521
    2527           0       543.289673   2027.586182  -16002.44140    112.992195
    2528           0       543.289673   2027.586182  -16358.53808    108.714035
    2529           0       543.289673   2027.586182  -16714.63671    104.650185
    2530           0       543.289673   2027.586182  -17070.73437    100.580788
    2531           0       543.289673   2027.586182  -17426.83007     96.592834
    2532           0       543.289673   2027.586182  -17782.92773     92.656677
    2533           0       543.289673   2027.586182  -18139.02539     88.785583
    2534           0       543.289673   2027.586182  -18495.12304     84.978630
    2535           0       543.289673   2027.586182  -18851.22070     81.239716
    2536           0       543.289673   2027.586182  -19207.31835     77.571571
    2537           0       543.289673   2027.586182  -19563.41796     73.977440
    2538           0       543.289673   2027.586182  -19919.51367     70.461304
    2539           0       543.289673   2027.586182  -20275.61132     67.027878
    2540           0       543.289673   2027.586182  -20631.70898     63.682774
    2541           0       543.289673   2027.586182  -20987.80664     60.431793
    2542           0       543.289673   2027.586182  -21343.90234     57.280148
    2543           0       543.289673   2027.586182  -21700.00000     54.231571
    2544           0       543.289673   2027.586182  -22056.09765     51.287750
    2545           0       543.289673   2027.586182  -22412.19726     48.448044
    2546           0       543.289673   2027.586182  -22768.29492     45.709534
    2547           0       543.289673   2027.586182  -23124.39062     43.067795
    2548           0       543.289673   2027.586182  -23480.48828     40.517590
    2549           0       543.289673   2027.586182  -23836.58789     38.053951
    2550           0       543.289673   2027.586182  -24192.68554     35.672668
    2551           0       543.289673   2027.586182  -24548.78125     33.371048
    2552           0       543.289673   2027.586182  -24904.87890     31.146881
    2553           0       543.289673   2027.586182  -25260.97460     29.000046
    2554           0       543.289673   2027.586182  -25617.07226     26.928211
    2555           0       543.289673   2027.586182  -25973.17187     24.934980
    2556           0       543.289673   2027.586182  -26329.26953     23.012188
    2557           0       543.289673   2027.586182  -26685.36914     21.177309
    2558           0       543.289673   2027.586182  -27041.46484     19.393337
    2559           0       543.289673   2027.586182  -27397.56250     17.734577
    2560           0       543.289673   2027.586182  -27753.66015     16.055904
    2561           0       543.289673   2027.586182  -28109.75781     14.591299
    2562           0       543.289673   2027.586182  -28465.85351     13.138041
    2563           0       543.289673   2027.586182  -28821.94921     10.964698
    2564           0       424.476898   2055.745361  -14578.05078    123.760872
    2565           0       424.476898   2055.745361  -14934.14843    126.304909
    2566           0       424.476898   2055.745361  -15290.24609    121.320244
    2567           0       424.476898   2055.745361  -15646.34277    116.619286
    2568           0       424.476898   2055.745361  -16002.44140    112.541275
    2569           0       424.476898   2055.745361  -16358.53808    108.183739
    2570           0       424.476898   2055.745361  -16714.63671    104.023483
    2571           0       424.476898   2055.745361  -17070.73437     99.869865
    2572           0       424.476898   2055.745361  -17426.83203     95.794762
    2573           0       424.476898   2055.745361  -17782.92968     91.780235
    2574           0       424.476898   2055.745361  -18139.02539     87.835510
    2575           0       424.476898   2055.745361  -18495.12304     83.964027
    2576           0       424.476898   2055.745361  -18851.22070     80.169304
    2577           0       424.476898   2055.745361  -19207.31835     76.455658
    2578           0       424.476898   2055.745361  -19563.41796     72.826149
    2579           0       424.476898   2055.745361  -19919.51562     69.284157
    2580           0       424.476898   2055.745361  -20275.61132     65.832657
    2581           0       424.476898   2055.745361  -20631.70898     62.474892
    2582           0       424.476898   2055.745361  -20987.80664     59.214073
    2583           0       424.476898   2055.745361  -21343.90234     56.053223
    2584           0       424.476898   2055.745361  -21700.00000     52.994812
    2585           0       424.476898   2055.745361  -22056.09765     50.040470
    2586           0       424.476898   2055.745361  -22412.19726     47.190903
    2587           0       424.476898   2055.745361  -22768.29296     44.445969
    2588           0       424.476898   2055.745361  -23124.39062     41.805000
    2589           0       424.476898   2055.745361  -23480.48828     39.267208
    2590           0       424.476898   2055.745361  -23836.58789     36.831810
    2591           0       424.476898   2055.745361  -24192.68359     34.498230
    2592           0       424.476898   2055.745361  -24548.78125     32.265530
    2593           0       424.476898   2055.745361  -24904.87890     30.132587
    2594           0       424.476898   2055.745361  -25260.97656     28.097281
    2595           0       424.476898   2055.745361  -25617.07421     26.156971
    2596           0       424.476898   2055.745361  -25973.17187     24.309145
    2597           0       424.476898   2055.745361  -26329.26953     22.547079
    2598           0       424.476898   2055.745361  -26685.36914     20.875563
    2599           0       424.476898   2055.745361  -27041.46484     19.266232
    2600           0       424.476898   2055.745361  -27397.56250     17.770432
    2601           0       424.476898   2055.745361  -27753.66015     16.263050
    2602           0       424.476898   2055.745361  -28109.75781     14.951860
    2603           0       424.476898   2055.745361  -28465.85351     13.645614
    2604           0       424.476898   2055.745361  -28821.95312     11.608523
    2605           0       304.227783   2076.948730  -14578.05078    123.110649
    2606           0       304.227783   2076.948730  -14934.14843    125.611206
    2607           0       304.227783   2076.948730  -15290.24609    120.580032
    2608           0       304.227783   2076.948730  -15646.34277    115.860245
    2609           0       304.227783   2076.948730  -16002.44140    111.727234
    2610           0       304.227783   2076.948730  -16358.53808    107.337616
    2611           0       304.227783   2076.948730  -16714.63671    103.129356
    2612           0       304.227783   2076.948730  -17070.73437     98.939903
    2613           0       304.227783   2076.948730  -17426.83203     94.826820
    2614           0       304.227783   2076.948730  -17782.92968     90.782799
    2615           0       304.227783   2076.948730  -18139.02539     86.812950
    2616           0       304.227783   2076.948730  -18495.12304     82.924316
    2617           0       304.227783   2076.948730  -18851.22070     79.119301
    2618           0       304.227783   2076.948730  -19207.31835     75.403236
    2619           0       304.227783   2076.948730  -19563.41796     71.778503
    2620           0       304.227783   2076.948730  -19919.51562     68.247986
    2621           0       304.227783   2076.948730  -20275.61132     64.813179
    2622           0       304.227783   2076.948730  -20631.70898     61.475517
    2623           0       304.227783   2076.948730  -20987.80664     58.235996
    2624           0       304.227783   2076.948730  -21343.90429     55.095753
    2625           0       304.227783   2076.948730  -21700.00195     52.055935
    2626           0       304.227783   2076.948730  -22056.09765     49.117924
    2627           0       304.227783   2076.948730  -22412.19726     46.283222
    2628           0       304.227783   2076.948730  -22768.29296     43.553581
    2629           0       304.227783   2076.948730  -23124.39062     40.930832
    2630           0       304.227783   2076.948730  -23480.48828     38.416950
    2631           0       304.227783   2076.948730  -23836.58789     36.013424
    2632           0       304.227783   2076.948730  -24192.68554     33.721512
    2633           0       304.227783   2076.948730  -24548.78125     31.540804
    2634           0       304.227783   2076.948730  -24904.87890     29.470804
    2635           0       304.227783   2076.948730  -25260.97656     27.507946
    2636           0       304.227783   2076.948730  -25617.07226     25.650339
    2637           0       304.227783   2076.948730  -25973.17187     23.891275
    2638           0       304.227783   2076.948730  -26329.26953     22.227432
    2639           0       304.227783   2076.948730  -26685.36914     20.653606
    2640           0       304.227783   2076.948730  -27041.46484     19.152882
    2641           0       304.227783   2076.948730  -27397.56250     17.755220
    2642           0       304.227783   2076.948730  -27753.66015     16.361290
    2643           0       304.227783   2076.948730  -28109.75781     15.145800
    2644           0       304.227783   2076.948730  -28465.85351     13.943423
    2645           0       304.227783   2076.948730  -28821.95117     12.010065
    2646           0       182.949219   2091.124023  -14578.05078    122.093773
    2647           0       182.949219   2091.124023  -14934.14843    124.555176
    2648           0       182.949219   2091.124023  -15290.24609    119.515808
    2649           0       182.949219   2091.124023  -15646.34277    114.809822
    2650           0       182.949219   2091.124023  -16002.44140    110.659981
    2651           0       182.949219   2091.124023  -16358.53808    106.273026
    2652           0       182.949219   2091.124023  -16714.63671    102.055161
    2653           0       182.949219   2091.124023  -17070.73437     97.865768
    2654           0       182.949203   2091.124023  -17426.83007     93.751526
    2655           0       182.949188   2091.124023  -17782.92773     89.712891
    2656           0       182.949188   2091.124023  -18139.02539     85.751915
    2657           0       182.949188   2091.124023  -18495.12304     81.877937
    2658           0       182.949188   2091.124023  -18851.22070     78.092339
    2659           0       182.949188   2091.124023  -19207.31835     74.400749
    2660           0       182.949188   2091.124023  -19563.41796     70.804871
    2661           0       182.949188   2091.124023  -19919.51367     67.307106
    2662           0       182.949188   2091.124023  -20275.61132     63.907974
    2663           0       182.949188   2091.124023  -20631.70898     60.607803
    2664           0       182.949158   2091.124023  -20987.80664     57.406300
    2665           0       182.949158   2091.124023  -21343.90234     54.303391
    2666           0       182.949158   2091.124023  -21700.00000     51.299442
    2667           0       182.949158   2091.124023  -22056.09765     48.395584
    2668           0       182.949158   2091.124023  -22412.19726     45.593712
    2669           0       182.949158   2091.124023  -22768.29492     42.896496
    2670           0       182.949158   2091.124023  -23124.39062     40.306835
    2671           0       182.949142   2091.124023  -23480.48828     37.827724
    2672           0       182.949127   2091.124023  -23836.58789     35.461220
    2673           0       182.949127   2091.124023  -24192.68554     33.208950
    2674           0       182.949127   2091.124023  -24548.78125     31.070320
    2675           0       182.949127   2091.124023  -24904.87890     29.045126
    2676           0       182.949127   2091.124023  -25260.97460     27.129120
    2677           0       182.949127   2091.124023  -25617.07226     25.321676
    2678           0       182.949127   2091.124023  -25973.17187     23.614029
    2679           0       182.949127   2091.124023  -26329.26953     22.006723
    2680           0       182.949127   2091.124023  -26685.36914     20.488436
    2681           0       182.949112   2091.124023  -27041.46484     19.052763
    2682           0       182.949097   2091.124023  -27397.56250     17.713839
    2683           0       182.949097   2091.124023  -27753.66015     16.395235
    2684           0       182.949097   2091.124023  -28109.75781     15.242311
    2685           0       182.949097   2091.124023  -28465.85351     14.116593
    2686           0       182.949158   2091.124023  -28821.94921     12.267572
    2687           0        61.051674   2098.223633  -14578.05078    120.824585
    2688           0        61.051666   2098.223633  -14934.14843    123.244576
    2689           0        61.051662   2098.223633  -15290.24609    118.229355
    2690           0        61.051662   2098.223633  -15646.34277    113.557800
    2691           0        61.051662   2098.223633  -16002.44140    109.422661
    2692           0        61.051659   2098.223633  -16358.53808    105.062790
    2693           0        61.051655   2098.223633  -16714.63671    100.864861
    2694           0        61.051655   2098.223633  -17070.73437     96.700813
    2695           0        61.051651   2098.223633  -17426.83203     92.611366
    2696           0        61.051643   2098.223633  -17782.92968     88.601006
    2697           0        61.051643   2098.223633  -18139.02539     84.670197
    2698           0        61.051636   2098.223633  -18495.12304     80.829338
    2699           0        61.051632   2098.223633  -18851.22070     77.079262
    2700           0        61.051632   2098.223633  -19207.31835     73.425568
    2701           0        61.051632   2098.223633  -19563.41796     69.869560
    2702           0        61.051628   2098.223633  -19919.51562     66.413292
    2703           0        61.051620   2098.223633  -20275.61132     63.056900
    2704           0        61.051620   2098.223633  -20631.70898     59.800205
    2705           0        61.051613   2098.223633  -20987.80664     56.642384
    2706           0        61.051609   2098.223633  -21343.90234     53.582844
    2707           0        61.051609   2098.223633  -21700.00000     50.621552
    2708           0        61.051609   2098.223633  -22056.09765     47.759487
    2709           0        61.051605   2098.223633  -22412.19726     44.998627
    2710           0        61.051598   2098.223633  -22768.29296     42.341816
    2711           0        61.051598   2098.223633  -23124.39062     39.792156
    2712           0        61.051590   2098.223633  -23480.48828     37.352707
    2713           0        61.051586   2098.223633  -23836.58789     35.025398
    2714           0        61.051586   2098.223633  -24192.68359     32.811703
    2715           0        61.051586   2098.223633  -24548.78125     30.710779
    2716           0        61.051582   2098.223633  -24904.87890     28.722628
    2717           0        61.051579   2098.223633  -25260.97656     26.842901
    2718           0        61.051579   2098.223633  -25617.07421     25.072010
    2719           0        61.051575   2098.223633  -25973.17187     23.400728
    2720           0        61.051567   2098.223633  -26329.26953     21.832253
    2721           0        61.051567   2098.223633  -26685.36914     20.352785
    2722           0        61.051559   2098.223633  -27041.46484     18.962263
    2723           0        61.051556   2098.223633  -27397.56250     17.666655
    2724           0        61.051556   2098.223633  -27753.66015     16.403231
    2725           0        61.051556   2098.223633  -28109.75781     15.299503
    2726           0        61.051552   2098.223633  -28465.85351     14.234706
    2727           0        61.051609   2098.223633  -28821.95312     12.460116
    2728           0       -61.052467   2098.223633  -14578.05078    119.368294
    2729           0       -61.052467   2098.223633  -14934.14843    121.740524
    2730           0       -61.052467   2098.223633  -15290.24609    116.778061
    2731           0       -61.052467   2098.223633  -15646.34277    112.155228
    2732           0       -61.052467   2098.223633  -16002.44140    108.061935
    2733           0       -61.052467   2098.223633  -16358.53808    103.747879
    2734           0       -61.052467   2098.223633  -16714.63671     99.593964
    2735           0       -61.052467   2098.223633  -17070.73437     95.474480
    2736           0       -61.052467   2098.223633  -17426.83203     91.429253
    2737           0       -61.052467   2098.223633  -17782.92968     87.463028
    2738           0       -61.052467   2098.223633  -18139.02539     83.576210
    2739           0       -61.052467   2098.223633  -18495.12304     79.779167
    2740           0       -61.052467   2098.223633  -18851.22070     76.072769
    2741           0       -61.052467   2098.223633  -19207.31835     72.462593
    2742           0       -61.052467   2098.223633  -19563.41796     68.949966
    2743           0       -61.052467   2098.223633  -19919.51562     65.537010
    2744           0       -61.052467   2098.223633  -20275.61132     62.223881
    2745           0       -61.052467   2098.223633  -20631.70898     59.010429
    2746           0       -61.052467   2098.223633  -20987.80664     55.895828
    2747           0       -61.052467   2098.223633  -21343.90429     52.879425
    2748           0       -61.052467   2098.223633  -21700.00195     49.961113
    2749           0       -61.052467   2098.223633  -22056.09765     47.141701
    2750           0       -61.052467   2098.223633  -22412.19726     44.422985
    2751           0       -61.052467   2098.223633  -22768.29296     41.807652
    2752           0       -61.052467   2098.223633  -23124.39062     39.298634
    2753           0       -61.052467   2098.223633  -23480.48828     36.898872
    2754           0       -61.052467   2098.223633  -23836.58789     34.610241
    2755           0       -61.052467   2098.223633  -24192.68554     32.434238
    2756           0       -61.052467   2098.223633  -24548.78125     30.370159
    2757           0       -61.052467   2098.223633  -24904.87890     28.418203
    2758           0       -61.052467   2098.223633  -25260.97656     26.574314
    2759           0       -61.052467   2098.223633  -25617.07226     24.839224
    2760           0       -61.052467   2098.223633  -25973.17187     23.204165
    2761           0       -61.052467   2098.223633  -26329.26953     21.672726
    2762           0       -61.052467   2098.223633  -26685.36914     20.231627
    2763           0       -61.052467   2098.223633  -27041.46484     18.881319
    2764           0       -61.052467   2098.223633  -27397.56250     17.627735
    2765           0       -61.052467   2098.223633  -27753.66015     16.409849
    2766           0       -61.052467   2098.223633  -28109.75781     15.352200
    2767           0       -61.052467   2098.223633  -28465.85351     14.338213
    2768           0       -61.052467   2098.223633  -28821.95117     12.632314
    2769           0      -182.950089   2091.124023  -14578.05078    117.731796
    2770           0      -182.950089   2091.124023  -14934.14843    120.050064
    2771           0      -182.950104   2091.124023  -15290.24609    115.168373
    2772           0      -182.950104   2091.124023  -15646.34277    110.608238
    2773           0      -182.950104   2091.124023  -16002.44140    106.583511
    2774           0      -182.950104   2091.124023  -16358.53808    102.333664
    2775           0      -182.950104   2091.124023  -16714.63671     98.247490
    2776           0      -182.950104   2091.124023  -17070.73437     94.191406
    2777           0      -182.950119   2091.124023  -17426.83007     90.209457
    2778           0      -182.950119   2091.124023  -17782.92773     86.302933
    2779           0      -182.950119   2091.124023  -18139.02539     82.473526
    2780           0      -182.950119   2091.124023  -18495.12304     78.730652
    2781           0      -182.950134   2091.124023  -18851.22070     75.075676
    2782           0      -182.950134   2091.124023  -19207.31835     71.514252
    2783           0      -182.950134   2091.124023  -19563.41796     68.048141
    2784           0      -182.950134   2091.124023  -19919.51367     64.679855
    2785           0      -182.950134   2091.124023  -20275.61132     61.410027
    2786           0      -182.950134   2091.124023  -20631.70898     58.239037
    2787           0      -182.950150   2091.124023  -20987.80664     55.166561
    2788           0      -182.950150   2091.124023  -21343.90234     52.192394
    2789           0      -182.950150   2091.124023  -21700.00000     49.316608
    2790           0      -182.950150   2091.124023  -22056.09765     46.539963
    2791           0      -182.950165   2091.124023  -22412.19726     43.863899
    2792           0      -182.950165   2091.124023  -22768.29492     41.290630
    2793           0      -182.950165   2091.124023  -23124.39062     38.822666
    2794           0      -182.950180   2091.124023  -23480.48828     36.462646
    2795           0      -182.950180   2091.124023  -23836.58789     34.212555
    2796           0      -182.950180   2091.124023  -24192.68554     32.074116
    2797           0      -182.950180   2091.124023  -24548.78125     30.047092
    2798           0      -182.950180   2091.124023  -24904.87890     28.131840
    2799           0      -182.950180   2091.124023  -25260.97460     26.324892
    2800           0      -182.950180   2091.124023  -25617.07226     24.626507
    2801           0      -182.950195   2091.124023  -25973.17187     23.029123
    2802           0      -182.950195   2091.124023  -26329.26953     21.534395
    2803           0      -182.950195   2091.124023  -26685.36914     20.132324
    2804           0      -182.950211   2091.124023  -27041.46484     18.818089
    2805           0      -182.950211   2091.124023  -27397.56250     17.605431
    2806           0      -182.950211   2091.124023  -27753.66015     16.423376
    2807           0      -182.950211   2091.124023  -28109.75781     15.407979
    2808           0      -182.950211   2091.124023  -28465.85351     14.433309
    2809           0      -182.950165   2091.124023  -28821.94921     12.790319
    2810           0      -304.228607   2076.948730  -14578.05078    115.864174
    2811           0      -304.228607   2076.948730  -14934.14843    118.125908
    2812           0      -304.228607   2076.948730  -15290.24609    113.356117
    2813           0      -304.228607   2076.948730  -15646.34277    108.877991
    2814           0      -304.228607   2076.948730  -16002.44140    104.952286
    2815           0      -304.228607   2076.948730  -16358.53808    100.789886
    2816           0      -304.228607   2076.948730  -16714.63671     96.799919
    2817           0      -304.228607   2076.948730  -17070.73437     92.831505
    2818           0      -304.228638   2076.948730  -17426.83203     88.937790
    2819           0      -304.228638   2076.948730  -17782.92968     85.112831
    2820           0      -304.228638   2076.948730  -18139.02539     81.361191
    2821           0      -304.228638   2076.948730  -18495.12304     77.689972
    2822           0      -304.228638   2076.948730  -18851.22070     74.101563
    2823           0      -304.228638   2076.948730  -19207.31835     70.601318
    2824           0      -304.228638   2076.948730  -19563.41796     67.191719
    2825           0      -304.228638   2076.948730  -19919.51562     63.875786
    2826           0      -304.228668   2076.948730  -20275.61132     60.655113
    2827           0      -304.228668   2076.948730  -20631.70898     57.531170
    2828           0      -304.228668   2076.948730  -20987.80664     54.504894
    2829           0      -304.228668   2076.948730  -21343.90234     51.577171
    2830           0      -304.228668   2076.948730  -21700.00000     48.748829
    2831           0      -304.228668   2076.948730  -22056.09765     46.020725
    2832           0      -304.228668   2076.948730  -22412.19726     43.393852
    2833           0      -304.228668   2076.948730  -22768.29296     40.869503
    2834           0      -304.228668   2076.948730  -23124.39062     38.448990
    2835           0      -304.228699   2076.948730  -23480.48828     36.133945
    2836           0      -304.228699   2076.948730  -23836.58789     33.925770
    2837           0      -304.228699   2076.948730  -24192.68359     31.825930
    2838           0      -304.228699   2076.948730  -24548.78125     29.834517
    2839           0      -304.228699   2076.948730  -24904.87890     27.951820
    2840           0      -304.228699   2076.948730  -25260.97656     26.175358
    2841           0      -304.228699   2076.948730  -25617.07421     24.504471
    2842           0      -304.228699   2076.948730  -25973.17187     22.933998
    2843           0      -304.228699   2076.948730  -26329.26953     21.462254
    2844           0      -304.228699   2076.948730  -26685.36914     20.085587
    2845           0      -304.228729   2076.948730  -27041.46484     18.789936
    2846           0      -304.228729   2076.948730  -27397.56250     17.603596
    2847           0      -304.228729   2076.948730  -27753.66015     16.437574
    2848           0      -304.228729   2076.948730  -28109.75781     15.449479
    2849           0      -304.228729   2076.948730  -28465.85351     14.495470
    2850           0      -304.228668   2076.948730  -28821.95312     12.905760
    2851           0      -424.477692   2055.745361  -14578.05078    113.664925
    2852           0      -424.477692   2055.745361  -14934.14843    115.874702
    2853           0      -424.477692   2055.745361  -15290.24609    111.252579
    2854           0      -424.477692   2055.745361  -15646.34277    106.887047
    2855           0      -424.477692   2055.745361  -16002.44140    103.096535
    2856           0      -424.477692   2055.745361  -16358.53808     99.054436
    2857           0      -424.477692   2055.745361  -16714.63671     95.197281
    2858           0      -424.477692   2055.745361  -17070.73437     91.350761
    2859           0      -424.477692   2055.745361  -17426.83203     87.580536
    2860           0      -424.477692   2055.745361  -17782.92968     83.870598
    2861           0      -424.477692   2055.745361  -18139.02539     80.229347
    2862           0      -424.477692   2055.745361  -18495.12304     76.660393
    2863           0      -424.477692   2055.745361  -18851.22070     73.167084
    2864           0      -424.477692   2055.745361  -19207.31835     69.753838
    2865           0      -424.477692   2055.745361  -19563.41796     66.423775
    2866           0      -424.477692   2055.745361  -19919.51562     63.180317
    2867           0      -424.477692   2055.745361  -20275.61132     60.026493
    2868           0      -424.477692   2055.745361  -20631.70898     56.965454
    2869           0      -424.477692   2055.745361  -20987.80664     54.000252
    2870           0      -424.477692   2055.745361  -21343.90429     51.133686
    2871           0      -424.477692   2055.745361  -21700.00195     48.367847
    2872           0      -424.477692   2055.745361  -22056.09765     45.704018
    2873           0      -424.477692   2055.745361  -22412.19726     43.142651
    2874           0      -424.477692   2055.745361  -22768.29296     40.683262
    2875           0      -424.477692   2055.745361  -23124.39062     38.324837
    2876           0      -424.477692   2055.745361  -23480.48828     36.066429
    2877           0      -424.477692   2055.745361  -23836.58789     33.907261
    2878           0      -424.477692   2055.745361  -24192.68554     31.847000
    2879           0      -424.477692   2055.745361  -24548.78125     29.885242
    2880           0      -424.477692   2055.745361  -24904.87890     28.021729
    2881           0      -424.477692   2055.745361  -25260.97656     26.255476
    2882           0      -424.477692   2055.745361  -25617.07226     24.585230
    2883           0      -424.477692   2055.745361  -25973.17187     23.009981
    2884           0      -424.477692   2055.745361  -26329.26953     21.525057
    2885           0      -424.477692   2055.745361  -26685.36914     20.136326
    2886           0      -424.477692   2055.745361  -27041.46484     18.819916
    2887           0      -424.477692   2055.745361  -27397.56250     17.622988
    2888           0      -424.477692   2055.745361  -27753.66015     16.437019
    2889           0      -424.477692   2055.745361  -28109.75781     15.443171
    2890           0      -424.477692   2055.745361  -28465.85351     14.480294
    2891           0      -424.477692   2055.745361  -28821.95117     12.929259
    2892           0      -543.290527   2027.586182  -14578.05078    111.002319
    2893           0      -543.290527   2027.586182  -14934.14843    113.170731
    2894           0      -543.290527   2027.586182  -15290.24609    108.739052
    2895           0      -543.290527   2027.586182  -15646.34277    104.530281
    2896           0      -543.290527   2027.586182  -16002.44140    100.917801
    2897           0      -543.290527   2027.586182  -16358.53808     97.040581
    2898           0      -543.290527   2027.586182  -16714.63671     93.362053
    2899           0      -543.290527   2027.586182  -17070.73437     89.683548
    2900           0      -543.290527   2027.586182  -17426.83007     86.083855
    2901           0      -543.290527   2027.586182  -17782.92773     82.536034
    2902           0      -543.290527   2027.586182  -18139.02539     79.052185
    2903           0      -543.290527   2027.586182  -18495.12304     75.631607
    2904           0      -543.290527   2027.586182  -18851.22070     72.278008
    2905           0      -543.290527   2027.586182  -19207.31835     68.994148
    2906           0      -543.290527   2027.586182  -19563.41796     65.783211
    2907           0      -543.290527   2027.586182  -19919.51367     62.649025
    2908           0      -543.290527   2027.586182  -20275.61132     59.596146
    2909           0      -543.290527   2027.586182  -20631.70898     56.629936
    2910           0      -543.290527   2027.586182  -20987.80664     53.755814
    2911           0      -543.290527   2027.586182  -21343.90234     50.978924
    2912           0      -543.290588   2027.586182  -21700.00000     48.302643
    2913           0      -543.290588   2027.586182  -22056.09765     45.728661
    2914           0      -543.290588   2027.586182  -22412.19726     43.256611
    2915           0      -543.290588   2027.586182  -22768.29492     40.883385
    2916           0      -543.290588   2027.586182  -23124.39062     38.604767
    2917           0      -543.290588   2027.586182  -23480.48828     36.415627
    2918           0      -543.290588   2027.586182  -23836.58789     34.311169
    2919           0      -543.290588   2027.586182  -24192.68554     32.287403
    2920           0      -543.290588   2027.586182  -24548.78125     30.342112
    2921           0      -543.290588   2027.586182  -24904.87890     28.473909
    2922           0      -543.290588   2027.586182  -25260.97460     26.683723
    2923           0      -543.290588   2027.586182  -25617.07226     24.970774
    2924           0      -543.290588   2027.586182  -25973.17187     23.339962
    2925           0      -543.290588   2027.586182  -26329.26953     21.785736
    2926           0      -543.290588   2027.586182  -26685.36914     20.325682
    2927           0      -543.290588   2027.586182  -27041.46484     18.929445
    2928           0      -543.290588   2027.586182  -27397.56250     17.663378
    2929           0      -543.290588   2027.586182  -27753.66015     16.406412
    2930           0      -543.290588   2027.586182  -28109.75781     15.354884
    2931           0      -543.290588   2027.586182  -28465.85351     14.343054
    2932           0      -543.290527   2027.586182  -28821.94921     12.812475
    2933           0      -660.265015   1992.566284  -14578.05078    107.734367
    2934           0      -660.265015   1992.566284  -14934.14843    109.879707
    2935           0      -660.265015   1992.566284  -15290.24609    105.685936
    2936           0      -660.265015   1992.566284  -15646.34277    101.691681
    2937           0      -660.265015   1992.566284  -16002.44140     98.305763
    2938           0      -660.265015   1992.566284  -16358.53808     94.648369
    2939           0      -660.265015   1992.566284  -16714.63671     91.202301
    2940           0      -660.265015   1992.566284  -17070.73437     87.747925
    2941           0      -660.265015   1992.566284  -17426.83203     84.375954
    2942           0      -660.265015   1992.566284  -17782.92968     81.048729
    2943           0      -660.265015   1992.566284  -18139.02539     77.781548
    2944           0      -660.265015   1992.566284  -18495.12304     74.568832
    2945           0      -660.265015   1992.566284  -18851.22070     71.413795
    2946           0      -660.265015   1992.566284  -19207.31835     68.316879
    2947           0      -660.265015   1992.566284  -19563.41796     65.280922
    2948           0      -660.265015   1992.566284  -19919.51562     62.310036
    2949           0      -660.265015   1992.566284  -20275.61132     59.410069
    2950           0      -660.265015   1992.566284  -20631.70898     56.588116
    2951           0      -660.265015   1992.566284  -20987.80664     53.851170
    2952           0      -660.265015   1992.566284  -21343.90234     51.205490
    2953           0      -660.265015   1992.566284  -21700.00000     48.654888
    2954           0      -660.265015   1992.566284  -22056.09765     46.200516
    2955           0      -660.265015   1992.566284  -22412.19726     43.840488
    2956           0      -660.265015   1992.566284  -22768.29296     41.569309
    2957           0      -660.265015   1992.566284  -23124.39062     39.379578
    2958           0      -660.265015   1992.566284  -23480.48828     37.261879
    2959           0      -660.265015   1992.566284  -23836.58789     35.207081
    2960           0      -660.265015   1992.566284  -24192.68359     33.206810
    2961           0      -660.265015   1992.566284  -24548.78125     31.256214
    2962           0      -660.265015   1992.566284  -24904.87890     29.352264
    2963           0      -660.265015   1992.566284  -25260.97656     27.497820
    2964           0      -660.265015   1992.566284  -25617.07421     25.693623
    2965           0      -660.265015   1992.566284  -25973.17187     23.951349
    2966           0      -660.265015   1992.566284  -26329.26953     22.267199
    2967           0      -660.265015   1992.566284  -26685.36914     20.670565
    2968           0      -660.265015   1992.566284  -27041.46484     19.130405
    2969           0      -660.265015   1992.566284  -27397.56250     17.728006
    2970           0      -660.265015   1992.566284  -27753.66015     16.344189
    2971           0      -660.265015   1992.566284  -28109.75781     15.173100
    2972           0      -660.265015   1992.566284  -28465.85351     14.067714
    2973           0      -660.265015   1992.566284  -28821.95312     12.543530
    2974           0      -775.005371   1950.804199  -14578.05078    103.736374
    2975           0      -775.005371   1950.804199  -14934.14843    105.881660
    2976           0      -775.005371   1950.804199  -15290.24609    101.975632
    2977           0      -775.005371   1950.804199  -15646.34277     98.263397
    2978           0      -775.005371   1950.804199  -16002.44140     95.154953
    2979           0      -775.005371   1950.804199  -16358.53808     91.778625
    2980           0      -775.005371   1950.804199  -16714.63671     88.622620
    2981           0      -775.005371   1950.804199  -17070.73437     85.453537
    2982           0      -775.005371   1950.804199  -17426.83203     82.371201
    2983           0      -775.005371   1950.804199  -17782.92968     79.328468
    2984           0      -775.005371   1950.804199  -18139.02539     76.343124
    2985           0      -775.005371   1950.804199  -18495.12304     73.404251
    2986           0      -775.005371   1950.804199  -18851.22070     70.514313
    2987           0      -775.005371   1950.804199  -19207.31835     67.671089
    2988           0      -775.005371   1950.804199  -19563.41796     64.877327
    2989           0      -775.005371   1950.804199  -19919.51562     62.136768
    2990           0      -775.005371   1950.804199  -20275.61132     59.455814
    2991           0      -775.005371   1950.804199  -20631.70898     56.840942
    2992           0      -775.005371   1950.804199  -20987.80664     54.298450
    2993           0      -775.005371   1950.804199  -21343.90429     51.832397
    2994           0      -775.005371   1950.804199  -21700.00195     49.444893
    2995           0      -775.005371   1950.804199  -22056.09765     47.134666
    2996           0      -775.005371   1950.804199  -22412.19726     44.897942
    2997           0      -775.005371   1950.804199  -22768.29296     42.728134
    2998           0      -775.005371   1950.804199  -23124.39062     40.616280
    2999           0      -775.005371   1950.804199  -23480.48828     38.551655
    3000           0      -775.005371   1950.804199  -23836.58789     36.523132
    3001           0      -775.005371   1950.804199  -24192.68554     34.520020
    3002           0      -775.005371   1950.804199  -24548.78125     32.535378
    3003           0      -775.005371   1950.804199  -24904.87890     30.564659
    3004           0      -775.005371   1950.804199  -25260.97656     28.611841
    3005           0      -775.005371   1950.804199  -25617.07226     26.679472
    3006           0      -775.005371   1950.804199  -25973.17187     24.785021
    3007           0      -775.005371   1950.804199  -26329.26953     22.928448
    3008           0      -775.005371   1950.804199  -26685.36914     21.148117
    3009           0      -775.005371   1950.804199  -27041.46484     19.418695
    3010           0      -775.005371   1950.804199  -27397.56250     17.827713
    3011           0      -775.005371   1950.804199  -27753.66015     16.276550
    3012           0      -775.005371   1950.804199  -28109.75781     14.934956
    3013           0      -775.005371   1950.804199  -28465.85351     13.702786
    3014           0      -775.005371   1950.804199  -28821.95117     12.193669
    3015           0      -887.123413   1902.441162  -14578.05078     98.928871
    3016           0      -887.123413   1902.441162  -14934.14843    101.097572
    3017           0      -887.123413   1902.441162  -15290.24609     97.526016
    3018           0      -887.123413   1902.441162  -15646.34277     94.167709
    3019           0      -887.123413   1902.441162  -16002.44140     91.383492
    3020           0      -887.123413   1902.441162  -16358.53808     88.350159
    3021           0      -887.123413   1902.441162  -16714.63671     85.538200
    3022           0      -887.123413   1902.441162  -17070.73437     82.713715
    3023           0      -887.123413   1902.441162  -17426.83007     79.979233
    3024           0      -887.123413   1902.441162  -17782.92773     77.281670
    3025           0      -887.123413   1902.441162  -18139.02539     74.639359
    3026           0      -887.123413   1902.441162  -18495.12304     72.037125
    3027           0      -887.123413   1902.441162  -18851.22070     69.476456
    3028           0      -887.123413   1902.441162  -19207.31835     66.953659
    3029           0      -887.123413   1902.441162  -19563.41796     64.471268
    3030           0      -887.123413   1902.441162  -19919.51367     62.032055
    3031           0      -887.123413   1902.441162  -20275.61132     59.640244
    3032           0      -887.123413   1902.441162  -20631.70898     57.298374
    3033           0      -887.123413   1902.441162  -20987.80664     55.007408
    3034           0      -887.123413   1902.441162  -21343.90234     52.765697
    3035           0      -887.123352   1902.441162  -21700.00000     50.569927
    3036           0      -887.123352   1902.441162  -22056.09765     48.415359
    3037           0      -887.123352   1902.441162  -22412.19726     46.296360
    3038           0      -887.123352   1902.441162  -22768.29492     44.207001
    3039           0      -887.123352   1902.441162  -23124.39062     42.140751
    3040           0      -887.123352   1902.441162  -23480.48828     40.090359
    3041           0      -887.123352   1902.441162  -23836.58789     38.048092
    3042           0      -887.123352   1902.441162  -24192.68554     36.005489
    3043           0      -887.123352   1902.441162  -24548.78125     33.956451
    3044           0      -887.123352   1902.441162  -24904.87890     31.896004
    3045           0      -887.123352   1902.441162  -25260.97460     29.828081
    3046           0      -887.123352   1902.441162  -25617.07226     27.756124
    3047           0      -887.123352   1902.441162  -25973.17187     25.700600
    3048           0      -887.123352   1902.441162  -26329.26953     23.666101
    3049           0      -887.123352   1902.441162  -26685.36914     21.694975
    3050           0      -887.123413   1902.441162  -27041.46484     19.773376
    3051           0      -887.123413   1902.441162  -27397.56250     17.983841
    3052           0      -887.123413   1902.441162  -27753.66015     16.266685
    3053           0      -887.123413   1902.441162  -28109.75781     14.747437
    3054           0      -887.123413   1902.441162  -28465.85351     13.395167
    3055           0      -887.123413   1902.441162  -28821.94921     11.962543
    3056           0      -996.239624   1847.640869  -14578.05078     93.305046
    3057           0      -996.239624   1847.640869  -14934.14843     95.512123
    3058           0      -996.239624   1847.640869  -15290.24609     92.315636
    3059           0      -996.239624   1847.640869  -15646.34277     89.376114
    3060           0      -996.239624   1847.640869  -16002.44140     86.953964
    3061           0      -996.239624   1847.640869  -16358.53808     84.316704
    3062           0      -996.239624   1847.640869  -16714.63671     81.892273
    3063           0      -996.239624   1847.640869  -17070.73437     79.460503
    3064           0      -996.239624   1847.640869  -17426.83203     77.119614
    3065           0      -996.239624   1847.640869  -17782.92968     74.814392
    3066           0      -996.239624   1847.640869  -18139.02539     72.562057
    3067           0      -996.239624   1847.640869  -18495.12304     70.345268
    3068           0      -996.239624   1847.640869  -18851.22070     68.165413
    3069           0      -996.239624   1847.640869  -19207.31835     66.018944
    3070           0      -996.239624   1847.640869  -19563.41796     63.907616
    3071           0      -996.239624   1847.640869  -19919.51562     61.831451
    3072           0      -996.239624   1847.640869  -20275.61132     59.788460
    3073           0      -996.239624   1847.640869  -20631.70898     57.773140
    3074           0      -996.239624   1847.640869  -20987.80664     55.776608
    3075           0      -996.239624   1847.640869  -21343.90234     53.788452
    3076           0      -996.239624   1847.640869  -21700.00000     51.797680
    3077           0      -996.239624   1847.640869  -22056.09765     49.795471
    3078           0      -996.239624   1847.640869  -22412.19726     47.775486
    3079           0      -996.239624   1847.640869  -22768.29296     45.734558
    3080           0      -996.239624   1847.640869  -23124.39062     43.672649
    3081           0      -996.239624   1847.640869  -23480.48828     41.590832
    3082           0      -996.239624   1847.640869  -23836.58789     39.490757
    3083           0      -996.239624   1847.640869  -24192.68359     37.372173
    3084           0      -996.239624   1847.640869  -24548.78125     35.234577
    3085           0      -996.239624   1847.640869  -24904.87890     33.075535
    3086           0      -996.239624   1847.640869  -25260.97656     30.898426
    3087           0      -996.239624   1847.640869  -25617.07421     28.706461
    3088           0      -996.239624   1847.640869  -25973.17187     26.519068
    3089           0      -996.239624   1847.640869  -26329.26953     24.345566
    3090           0      -996.239685   1847.640869  -26685.36914     22.226864
    3091           0      -996.239685   1847.640869  -27041.46484     20.165550
    3092           0      -996.239685   1847.640869  -27397.56250     18.229618
    3093           0      -996.239685   1847.640869  -27753.66015     16.411366
    3094           0      -996.239685   1847.640869  -28109.75781     14.785287
    3095           0      -996.239685   1847.640869  -28465.85351     13.391834
    3096           0      -996.239685   1847.640869  -28821.95312     12.169129
    3097           0     -1101.984863   1786.588867  -14578.05078     86.947716
    3098           0     -1101.984863   1786.588867  -14934.14843     89.198860
    3099           0     -1101.984863   1786.588867  -15290.24609     86.400536
    3100           0     -1101.984863   1786.588867  -15646.34277     83.929840
    3101           0     -1101.984863   1786.588867  -16002.44140     81.890915
    3102           0     -1101.984863   1786.588867  -16358.53808     79.685318
    3103           0     -1101.984863   1786.588867  -16714.63671     77.673721
    3104           0     -1101.984863   1786.588867  -17070.73437     75.662773
    3105           0     -1101.984863   1786.588867  -17426.83203     73.740410
    3106           0     -1101.984863   1786.588867  -17782.92968     71.851982
    3107           0     -1101.984863   1786.588867  -18139.02539     70.014046
    3108           0     -1101.984863   1786.588867  -18495.12304     68.209007
    3109           0     -1101.984863   1786.588867  -18851.22070     66.440704
    3110           0     -1101.984863   1786.588867  -19207.31835     64.705711
    3111           0     -1101.984863   1786.588867  -19563.41796     63.003963
    3112           0     -1101.984863   1786.588867  -19919.51562     61.328671
    3113           0     -1101.984863   1786.588867  -20275.61132     59.668243
    3114           0     -1101.984863   1786.588867  -20631.70898     58.005322
    3115           0     -1101.984863   1786.588867  -20987.80664     56.319744
    3116           0     -1101.984863   1786.588867  -21343.90429     54.591190
    3117           0     -1101.984863   1786.588867  -21700.00195     52.801899
    3118           0     -1101.984863   1786.588867  -22056.09765     50.939739
    3119           0     -1101.984863   1786.588867  -22412.19726     48.999130
    3120           0     -1101.984863   1786.588867  -22768.29296     46.981255
    3121           0     -1101.984863   1786.588867  -23124.39062     44.894180
    3122           0     -1101.984863   1786.588867  -23480.48828     42.750107
    3123           0     -1101.984863   1786.588867  -23836.58789     40.563606
    3124           0     -1101.984863   1786.588867  -24192.68554     38.347725
    3125           0     -1101.984863   1786.588867  -24548.78125     36.112801
    3126           0     -1101.984863   1786.588867  -24904.87890     33.863815
    3127           0     -1101.984863   1786.588867  -25260.97656     31.605482
    3128           0     -1101.984863   1786.588867  -25617.07226     29.340816
    3129           0     -1101.984863   1786.588867  -25973.17187     27.084721
    3130           0     -1101.984863   1786.588867  -26329.26953     24.850393
    3131           0     -1101.984863   1786.588867  -26685.36914     22.673342
    3132           0     -1101.984863   1786.588867  -27041.46484     20.576008
    3133           0     -1101.984863   1786.588867  -27397.56250     18.608093
    3134           0     -1101.984863   1786.588867  -27753.66015     16.817165
    3135           0     -1101.984863   1786.588867  -28109.75781     15.238501
    3136           0     -1101.984863   1786.588867  -28465.85351     13.957127
    3137           0     -1101.984863   1786.588867  -28821.95117     13.107121
    3138           0     -1204.001465   1719.491333  -14578.05078     80.040260
    3139           0     -1204.001465   1719.491333  -14934.14843     82.327522
    3140           0     -1204.001465   1719.491333  -15290.24609     79.925690
    3141           0     -1204.001465   1719.491333  -15646.34277     77.951294
    3142           0     -1204.001465   1719.491333  -16002.44140     76.291077
    3143           0     -1204.001465   1719.491333  -16358.53808     74.529556
    3144           0     -1204.001465   1719.491333  -16714.63671     72.929344
    3145           0     -1204.001465   1719.491333  -17070.73437     71.341850
    3146           0     -1204.001465   1719.491333  -17426.83007     69.834595
    3147           0     -1204.001465   1719.491333  -17782.92773     68.359909
    3148           0     -1204.001465   1719.491333  -18139.02539     66.932808
    3149           0     -1204.001465   1719.491333  -18495.12304     65.539886
    3150           0     -1204.001465   1719.491333  -18851.22070     64.187523
    3151           0     -1204.001465   1719.491333  -19207.31835     62.871643
    3152           0     -1204.001465   1719.491333  -19563.41796     61.586281
    3153           0     -1204.001465   1719.491333  -19919.51367     60.314480
    3154           0     -1204.001465   1719.491333  -20275.61132     59.032589
    3155           0     -1204.001465   1719.491333  -20631.70898     57.711468
    3156           0     -1204.001465   1719.491333  -20987.80664     56.321419
    3157           0     -1204.001465   1719.491333  -21343.90234     54.835262
    3158           0     -1204.001465   1719.491333  -21700.00000     53.231853
    3159           0     -1204.001465   1719.491333  -22056.09765     51.498123
    3160           0     -1204.001465   1719.491333  -22412.19726     49.630241
    3161           0     -1204.001465   1719.491333  -22768.29492     47.633816
    3162           0     -1204.001465   1719.491333  -23124.39062     45.523651
    3163           0     -1204.001465   1719.491333  -23480.48828     43.321880
    3164           0     -1204.001465   1719.491333  -23836.58789     41.055351
    3165           0     -1204.001465   1719.491333  -24192.68554     38.751911
    3166           0     -1204.001465   1719.491333  -24548.78125     36.436180
    3167           0     -1204.001465   1719.491333  -24904.87890     34.126156
    3168           0     -1204.001465   1719.491333  -25260.97460     31.832506
    3169           0     -1204.001465   1719.491333  -25617.07226     29.561232
    3170           0     -1204.001465   1719.491333  -25973.17187     27.321342
    3171           0     -1204.001465   1719.491333  -26329.26953     25.128958
    3172           0     -1204.001465   1719.491333  -26685.36914     23.011080
    3173           0     -1204.001465   1719.491333  -27041.46484     21.011105
    3174           0     -1204.001465   1719.491333  -27397.56250     19.161217
    3175           0     -1204.001465   1719.491333  -27753.66015     17.555788
    3176           0     -1204.001465   1719.491333  -28109.75781     16.210423
    3177           0     -1204.001465   1719.491333  -28465.85351     15.206767
    3178           0     -1204.001465   1719.491333  -28821.94921     14.820052
    3179           0     -1301.944092   1646.575928  -14578.05078     72.879700
    3180           0     -1301.944092   1646.575928  -14934.14843     75.163948
    3181           0     -1301.944092   1646.575928  -15290.24609     73.136009
    3182           0     -1301.944092   1646.575928  -15646.34277     71.648743
    3183           0     -1301.944092   1646.575928  -16002.44140     70.336113
    3184           0     -1301.944092   1646.575928  -16358.53808     68.999725
    3185           0     -1301.944092   1646.575928  -16714.63671     67.780060
    3186           0     -1301.944092   1646.575928  -17070.73437     66.588142
    3187           0     -1301.944092   1646.575928  -17426.83203     65.462524
    3188           0     -1301.944092   1646.575928  -17782.92968     64.369698
    3189           0     -1301.944092   1646.575928  -18139.02539     63.323288
    3190           0     -1301.944092   1646.575928  -18495.12304     62.317577
    3191           0     -1301.944092   1646.575928  -18851.22070     61.358856
    3192           0     -1301.944092   1646.575928  -19207.31835     60.438862
    3193           0     -1301.944092   1646.575928  -19563.41796     59.540985
    3194           0     -1301.944092   1646.575928  -19919.51562     58.636616
    3195           0     -1301.944092   1646.575928  -20275.61132     57.691048
    3196           0     -1301.944092   1646.575928  -20631.70898     56.667744
    3197           0     -1301.944092   1646.575928  -20987.80664     55.532681
    3198           0     -1301.944092   1646.575928  -21343.90234     54.257778
    3199           0     -1301.944092   1646.575928  -21700.00000     52.822762
    3200           0     -1301.944092   1646.575928  -22056.09765     51.216541
    3201           0     -1301.944092   1646.575928  -22412.19726     49.437511
    3202           0     -1301.944092   1646.575928  -22768.29296     47.494167
    3203           0     -1301.944092   1646.575928  -23124.39062     45.404469
    3204           0     -1301.944092   1646.575928  -23480.48828     43.195770
    3205           0     -1301.944092   1646.575928  -23836.58789     40.902287
    3206           0     -1301.944092   1646.575928  -24192.68359     38.563316
    3207           0     -1301.944092   1646.575928  -24548.78125     36.216995
    3208           0     -1301.944092   1646.575928  -24904.87890     33.897621
    3209           0     -1301.944092   1646.575928  -25260.97656     31.627602
    3210           0     -1301.944092   1646.575928  -25617.07421     29.422153
    3211           0     -1301.944092   1646.575928  -25973.17187     27.287149
    3212           0     -1301.944092   1646.575928  -26329.26953     25.240784
    3213           0     -1301.944092   1646.575928  -26685.36914     23.299238
    3214           0     -1301.944092   1646.575928  -27041.46484     21.522072
    3215           0     -1301.944092   1646.575928  -27397.56250     19.926136
    3216           0     -1301.944092   1646.575928  -27753.66015     18.631638
    3217           0     -1301.944092   1646.575928  -28109.75781     17.648615
    3218           0     -1301.944092   1646.575928  -28465.85351     17.011003
    3219           0     -1301.944092   1646.575928  -28821.95312     17.047546
    3220           0     -1395.481201   1568.088745  -14578.05078     65.844109
    3221           0     -1395.481201   1568.088745  -14934.14843     68.072136
    3222           0     -1395.481201   1568.088745  -15290.24609     66.362068
    3223           0     -1395.481201   1568.088745  -15646.34277     65.315086
    3224           0     -1395.481201   1568.088745  -16002.44140     64.290085
    3225           0     -1395.481201   1568.088745  -16358.53808     63.325493
    3226           0     -1395.481201   1568.088745  -16714.63671     62.426147
    3227           0     -1395.481201   1568.088745  -17070.73437     61.570686
    3228           0     -1395.481201   1568.088745  -17426.83203     60.766361
    3229           0     -1395.481201   1568.088745  -17782.92968     59.999039
    3230           0     -1395.481201   1568.088745  -18139.02539     59.283401
    3231           0     -1395.481201   1568.088745  -18495.12304     58.619972
    3232           0     -1395.481201   1568.088745  -18851.22070     58.010395
    3233           0     -1395.481201   1568.088745  -19207.31835     57.436165
    3234           0     -1395.481201   1568.088745  -19563.41796     56.868221
    3235           0     -1395.481201   1568.088745  -19919.51562     56.267738
    3236           0     -1395.481201   1568.088745  -20275.61132     55.594593
    3237           0     -1395.481201   1568.088745  -20631.70898     54.811207
    3238           0     -1395.481201   1568.088745  -20987.80664     53.886166
    3239           0     -1395.481201   1568.088745  -21343.90429     52.795574
    3240           0     -1395.481201   1568.088745  -21700.00195     51.523678
    3241           0     -1395.481201   1568.088745  -22056.09765     50.062862
    3242           0     -1395.481201   1568.088745  -22412.19726     48.413631
    3243           0     -1395.481201   1568.088745  -22768.29296     46.585007
    3244           0     -1395.481201   1568.088745  -23124.39062     44.594334
    3245           0     -1395.481201   1568.088745  -23480.48828     42.468357
    3246           0     -1395.481201   1568.088745  -23836.58789     40.241886
    3247           0     -1395.481201   1568.088745  -24192.68554     37.958485
    3248           0     -1395.481201   1568.088745  -24548.78125     35.664486
    3249           0     -1395.481201   1568.088745  -24904.87890     33.408089
    3250           0     -1395.481201   1568.088745  -25260.97656     31.226812
    3251           0     -1395.481201   1568.088745  -25617.07226     29.150808
    3252           0     -1395.481201   1568.088745  -25973.17187     27.189989
    3253           0     -1395.481201   1568.088745  -26329.26953     25.364264
    3254           0     -1395.481201   1568.088745  -26685.36914     23.678394
    3255           0     -1395.481201   1568.088745  -27041.46484     22.196037
    3256           0     -1395.481201   1568.088745  -27397.56250     20.920088
    3257           0     -1395.481201   1568.088745  -27753.66015     19.971350
    3258           0     -1395.481201   1568.088745  -28109.75781     19.359455
    3259           0     -1395.481201   1568.088745  -28465.85351     19.062082
    3260           0     -1395.481201   1568.088745  -28821.95117     19.376369
    3261           0     -1484.296631   1484.295654  -14578.05078     59.371681
    3262           0     -1484.296631   1484.295654  -14934.14843     61.470337
    3263           0     -1484.296631   1484.295654  -15290.24609     59.998337
    3264           0     -1484.296631   1484.295654  -15646.34277     59.304916
    3265           0     -1484.296631   1484.295654  -16002.44140     58.481274
    3266           0     -1484.296631   1484.295654  -16358.53808     57.803795
    3267           0     -1484.296631   1484.295654  -16714.63671     57.136982
    3268           0     -1484.296631   1484.295654  -17070.73437     56.533600
    3269           0     -1484.296631   1484.295654  -17426.83007     55.969814
    3270           0     -1484.296631   1484.295654  -17782.92773     55.458179
    3271           0     -1484.296631   1484.295654  -18139.02539     55.013420
    3272           0     -1484.296631   1484.295654  -18495.12304     54.638119
    3273           0     -1484.296631   1484.295654  -18851.22070     54.321938
    3274           0     -1484.296631   1484.295654  -19207.31835     54.033302
    3275           0     -1484.296631   1484.295654  -19563.41796     53.732487
    3276           0     -1484.296631   1484.295654  -19919.51367     53.376202
    3277           0     -1484.296631   1484.295654  -20275.61132     52.925209
    3278           0     -1484.296631   1484.295654  -20631.70898     52.346420
    3279           0     -1484.296631   1484.295654  -20987.80664     51.614338
    3280           0     -1484.296631   1484.295654  -21343.90234     50.710728
    3281           0     -1484.296631   1484.295654  -21700.00000     49.624176
    3282           0     -1484.296631   1484.295654  -22056.09765     48.349670
    3283           0     -1484.296631   1484.295654  -22412.19726     46.888367
    3284           0     -1484.296631   1484.295654  -22768.29492     45.248062
    3285           0     -1484.296631   1484.295654  -23124.39062     43.443192
    3286           0     -1484.296631   1484.295654  -23480.48828     41.496651
    3287           0     -1484.296631   1484.295654  -23836.58789     39.438995
    3288           0     -1484.296631   1484.295654  -24192.68554     37.311413
    3289           0     -1484.296631   1484.295654  -24548.78125     35.160961
    3290           0     -1484.296631   1484.295776  -24904.87890     33.042145
    3291           0     -1484.296631   1484.295776  -25260.97460     31.004547
    3292           0     -1484.296631   1484.295776  -25617.07226     29.093718
    3293           0     -1484.296631   1484.295776  -25973.17187     27.330723
    3294           0     -1484.296631   1484.295776  -26329.26953     25.738659
    3295           0     -1484.296631   1484.295776  -26685.36914     24.313271
    3296           0     -1484.296631   1484.295776  -27041.46484     23.108881
    3297           0     -1484.296631   1484.295776  -27397.56250     22.115475
    3298           0     -1484.296631   1484.295776  -27753.66015     21.437822
    3299           0     -1484.296631   1484.295776  -28109.75781     21.084801
    3300           0     -1484.296631   1484.295776  -28465.85351     21.006430
    3301           0     -1484.296631   1484.295654  -28821.94921     21.400589
    3302           0     -1568.089478   1395.480347  -14578.05078     53.911324
    3303           0     -1568.089478   1395.480347  -14934.14843     55.794056
    3304           0     -1568.089478   1395.480347  -15290.24609     54.465523
    3305           0     -1568.089478   1395.480347  -15646.34277     54.005741
    3306           0     -1568.089478   1395.480347  -16002.44140     53.278713
    3307           0     -1568.089478   1395.480347  -16358.53808     52.778561
    3308           0     -1568.089478   1395.480347  -16714.63671     52.236877
    3309           0     -1568.089478   1395.480347  -17070.73437     51.785034
    3310           0     -1568.089478   1395.480347  -17426.83203     51.373734
    3311           0     -1568.089478   1395.480347  -17782.92968     51.048733
    3312           0     -1568.089478   1395.480347  -18139.02539     50.820099
    3313           0     -1568.089478   1395.480347  -18495.12304     50.686161
    3314           0     -1568.089478   1395.480347  -18851.22070     50.619919
    3315           0     -1568.089478   1395.480347  -19207.31835     50.579628
    3316           0     -1568.089478   1395.480347  -19563.41796     50.520302
    3317           0     -1568.089478   1395.480347  -19919.51562     50.399853
    3318           0     -1568.089478   1395.480347  -20275.61132     50.182072
    3319           0     -1568.089478   1395.480347  -20631.70898     49.837563
    3320           0     -1568.089478   1395.480347  -20987.80664     49.342766
    3321           0     -1568.089478   1395.480347  -21343.90234     48.680119
    3322           0     -1568.089478   1395.480347  -21700.00000     47.837185
    3323           0     -1568.089478   1395.480347  -22056.09765     46.807446
    3324           0     -1568.089478   1395.480347  -22412.19726     45.589878
    3325           0     -1568.089478   1395.480347  -22768.29296     44.190342
    3326           0     -1568.089478   1395.480347  -23124.39062     42.620934
    3327           0     -1568.089478   1395.480347  -23480.48828     40.902248
    3328           0     -1568.089478   1395.480347  -23836.58789     39.061676
    3329           0     -1568.089478   1395.480347  -24192.68359     37.136982
    3330           0     -1568.089478   1395.480347  -24548.78125     35.172478
    3331           0     -1568.089478   1395.480347  -24904.87890     33.221581
    3332           0     -1568.089478   1395.480347  -25260.97656     31.338240
    3333           0     -1568.089478   1395.480347  -25617.07421     29.575838
    3334           0     -1568.089478   1395.480347  -25973.17187     27.968454
    3335           0     -1568.089478   1395.480347  -26329.26953     26.543818
    3336           0     -1568.089478   1395.480347  -26685.36914     25.295616
    3337           0     -1568.089478   1395.480347  -27041.46484     24.261360
    3338           0     -1568.089478   1395.480347  -27397.56250     23.421179
    3339           0     -1568.089478   1395.480347  -27753.66015     22.857954
    3340           0     -1568.089478   1395.480347  -28109.75781     22.577616
    3341           0     -1568.089478   1395.480347  -28465.85351     22.539900
    3342           0     -1568.089478   1395.480347  -28821.95312     22.811495
    3343           0     -1646.576416   1301.943115  -14578.05078     49.851337
    3344           0     -1646.576416   1301.943115  -14934.14843     51.444756
    3345           0     -1646.576416   1301.943115  -15290.24609     50.157181
    3346           0     -1646.576416   1301.943115  -15646.34277     49.791588
    3347           0     -1646.576416   1301.943115  -16002.44140     49.050140
    3348           0     -1646.576416   1301.943115  -16358.53808     48.601101
    3349           0     -1646.576416   1301.943115  -16714.63671     48.069618
    3350           0     -1646.576416   1301.943115  -17070.73437     47.665428
    3351           0     -1646.576416   1301.943115  -17426.83203     47.329426
    3352           0     -1646.576416   1301.943115  -17782.92968     47.139896
    3353           0     -1646.576416   1301.943115  -18139.02539     47.096996
    3354           0     -1646.576416   1301.943115  -18495.12304     47.188919
    3355           0     -1646.576416   1301.943115  -18851.22070     47.375637
    3356           0     -1646.576416   1301.943115  -19207.31835     47.610771
    3357           0     -1646.576416   1301.943115  -19563.41796     47.848309
    3358           0     -1646.576416   1301.943115  -19919.51562     48.045052
    3359           0     -1646.576416   1301.943115  -20275.61132     48.161243
    3360           0     -1646.576416   1301.943115  -20631.70898     48.160732
    3361           0     -1646.576416   1301.943115  -20987.80664     48.011086
    3362           0     -1646.576416   1301.943115  -21343.90429     47.685001
    3363           0     -1646.576416   1301.943115  -21700.00195     47.161037
    3364           0     -1646.576416   1301.943115  -22056.09765     46.425415
    3365           0     -1646.576416   1301.943115  -22412.19726     45.472469
    3366           0     -1646.576416   1301.943115  -22768.29296     44.306091
    3367           0     -1646.576416   1301.943115  -23124.39062     42.939404
    3368           0     -1646.576416   1301.943115  -23480.48828     41.395641
    3369           0     -1646.576416   1301.943115  -23836.58789     39.706791
    3370           0     -1646.576416   1301.943115  -24192.68554     37.913494
    3371           0     -1646.576416   1301.943115  -24548.78125     36.063160
    3372           0     -1646.576416   1301.943115  -24904.87890     34.209244
    3373           0     -1646.576416   1301.943115  -25260.97656     32.405132
    3374           0     -1646.576416   1301.943115  -25617.07226     30.702835
    3375           0     -1646.576416   1301.943115  -25973.17187     29.143538
    3376           0     -1646.576416   1301.943115  -26329.26953     27.757292
    3377           0     -1646.576416   1301.943115  -26685.36914     26.542879
    3378           0     -1646.576416   1301.943115  -27041.46484     25.521530
    3379           0     -1646.576416   1301.943115  -27397.56250     24.667269
    3380           0     -1646.576416   1301.943115  -27753.66015     24.039907
    3381           0     -1646.576416   1301.943115  -28109.75781     23.639105
    3382           0     -1646.576416   1301.943115  -28465.85351     23.458445
    3383           0     -1646.576416   1301.943115  -28821.95117     23.443701
    3384           0     -1719.492065   1204.000610  -14578.05078     47.473106
    3385           0     -1719.492065   1204.000610  -14934.14843     48.733917
    3386           0     -1719.492065   1204.000610  -15290.24609     47.384201
    3387           0     -1719.492065   1204.000610  -15646.34277     46.970181
    3388           0     -1719.492065   1204.000610  -16002.44140     46.103813
    3389           0     -1719.492065   1204.000610  -16358.53808     45.575737
    3390           0     -1719.492065   1204.000610  -16714.63671     44.943329
    3391           0     -1719.492065   1204.000610  -17070.73437     44.499863
    3392           0     -1719.492065   1204.000610  -17426.83007     44.191822
    3393           0     -1719.492065   1204.000610  -17782.92773     44.123116
    3394           0     -1719.492065   1204.000610  -18139.02539     44.277348
    3395           0     -1719.492065   1204.000610  -18495.12304     44.634060
    3396           0     -1719.492065   1204.000610  -18851.22070     45.146236
    3397           0     -1719.492065   1204.000610  -19207.31835     45.763336
    3398           0     -1719.492065   1204.000610  -19563.41796     46.430611
    3399           0     -1719.492065   1204.000610  -19919.51367     47.090256
    3400           0     -1719.492065   1204.000610  -20275.61132     47.683979
    3401           0     -1719.492065   1204.000610  -20631.70898     48.155312
    3402           0     -1719.492065   1204.000610  -20987.80664     48.452869
    3403           0     -1719.492065   1204.000610  -21343.90234     48.532898
    3404           0     -1719.492065   1204.000610  -21700.00000     48.361412
    3405           0     -1719.492065   1204.000610  -22056.09765     47.915668
    3406           0     -1719.492065   1204.000610  -22412.19726     47.185322
    3407           0     -1719.492065   1204.000610  -22768.29492     46.173035
    3408           0     -1719.492065   1204.000610  -23124.39062     44.895157
    3409           0     -1719.492065   1204.000610  -23480.48828     43.381260
    3410           0     -1719.492065   1204.000610  -23836.58789     41.674175
    3411           0     -1719.492065   1204.000610  -24192.68554     39.826668
    3412           0     -1719.492065   1204.000488  -24548.78125     37.900593
    3413           0     -1719.492065   1204.000488  -24904.87890     35.960194
    3414           0     -1719.492065   1204.000488  -25260.97460     34.065845
    3415           0     -1719.492065   1204.000488  -25617.07226     32.269154
    3416           0     -1719.492065   1204.000488  -25973.17187     30.609930
    3417           0     -1719.492065   1204.000488  -26329.26953     29.113598
    3418           0     -1719.492065   1204.000488  -26685.36914     27.783083
    3419           0     -1719.492065   1204.000488  -27041.46484     26.628378
    3420           0     -1719.492065   1204.000488  -27397.56250     25.619785
    3421           0     -1719.492065   1204.000488  -27753.66015     24.793619
    3422           0     -1719.492065   1204.000488  -28109.75781     24.140001
    3423           0     -1719.492065   1204.000488  -28465.85351     23.688965
    3424           0     -1719.492065   1204.000610  -28821.94921     23.309288
    3425           0     -1786.589355   1101.984009  -14578.05078     46.979553
    3426           0     -1786.589355   1101.984009  -14934.14843     47.876644
    3427           0     -1786.589355   1101.984009  -15290.24609     46.363892
    3428           0     -1786.589355   1101.984009  -15646.34277     45.754566
    3429           0     -1786.589355   1101.984009  -16002.44140     44.652905
    3430           0     -1786.589355   1101.984009  -16358.53808     43.916748
    3431           0     -1786.589355   1101.984009  -16714.63671     43.091293
    3432           0     -1786.589355   1101.984009  -17070.73437     42.558567
    3433           0     -1786.589355   1101.984009  -17426.83203     42.274067
    3434           0     -1786.589355   1101.984009  -17782.92968     42.350853
    3435           0     -1786.589355   1101.984009  -18139.02539     42.752926
    3436           0     -1786.589355   1101.984009  -18495.12304     43.454952
    3437           0     -1786.589355   1101.984009  -18851.22070     44.398403
    3438           0     -1786.589355   1101.984009  -19207.31835     45.514111
    3439           0     -1786.589355   1101.984009  -19563.41796     46.719467
    3440           0     -1786.589355   1101.984009  -19919.51562     47.926960
    3441           0     -1786.589355   1101.984009  -20275.61132     49.050568
    3442           0     -1786.589355   1101.984009  -20631.70898     50.011951
    3443           0     -1786.589355   1101.984009  -20987.80664     50.743374
    3444           0     -1786.589355   1101.984009  -21343.90234     51.190353
    3445           0     -1786.589355   1101.984009  -21700.00000     51.311562
    3446           0     -1786.589355   1101.984009  -22056.09765     51.079845
    3447           0     -1786.589355   1101.984009  -22412.19726     50.481796
    3448           0     -1786.589355   1101.984009  -22768.29296     49.518684
    3449           0     -1786.589355   1101.984009  -23124.39062     48.206963
    3450           0     -1786.589355   1101.984009  -23480.48828     46.579067
    3451           0     -1786.589355   1101.984009  -23836.58789     44.684814
    3452           0     -1786.589355   1101.984009  -24192.68359     42.589333
    3453           0     -1786.589355   1101.984009  -24548.78125     40.374008
    3454           0     -1786.589355   1101.984009  -24904.87890     38.123283
    3455           0     -1786.589355   1101.984009  -25260.97656     35.925259
    3456           0     -1786.589355   1101.984009  -25617.07421     33.846992
    3457           0     -1786.589355   1101.984009  -25973.17187     31.932816
    3458           0     -1786.589355   1101.984009  -26329.26953     30.198130
    3459           0     -1786.589355   1101.984009  -26685.36914     28.639908
    3460           0     -1786.589355   1101.984009  -27041.46484     27.260111
    3461           0     -1786.589355   1101.984009  -27397.56250     26.030022
    3462           0     -1786.589478   1101.984009  -27753.66015     24.964933
    3463           0     -1786.589478   1101.984009  -28109.75781     24.044714
    3464           0     -1786.589478   1101.984009  -28465.85351     23.318489
    3465           0     -1786.589355   1101.984009  -28821.95312     22.629576
    3466           0     -1847.641357    996.238708  -14578.05078     48.541737
    3467           0     -1847.641357    996.238708  -14934.14843     49.043652
    3468           0     -1847.641357    996.238770  -15290.24609     47.241924
    3469           0     -1847.641357    996.238770  -15646.34277     46.271721
    3470           0     -1847.641357    996.238770  -16002.44140     44.811516
    3471           0     -1847.641357    996.238770  -16358.53808     43.744129
    3472           0     -1847.641357    996.238770  -16714.63671     42.670006
    3473           0     -1847.641357    996.238770  -17070.73437     42.039951
    3474           0     -1847.641357    996.238770  -17426.83203     41.799789
    3475           0     -1847.641357    996.238770  -17782.92968     42.049221
    3476           0     -1847.641357    996.238770  -18139.02539     42.736378
    3477           0     -1847.641357    996.238770  -18495.12304     43.821369
    3478           0     -1847.641357    996.238770  -18851.22070     45.216419
    3479           0     -1847.641357    996.238770  -19207.31835     46.813232
    3480           0     -1847.641357    996.238770  -19563.41796     48.493519
    3481           0     -1847.641357    996.238770  -19919.51562     50.142040
    3482           0     -1847.641357    996.238770  -20275.61132     51.656734
    3483           0     -1847.641357    996.238770  -20631.70898     52.951385
    3484           0     -1847.641357    996.238770  -20987.80664     53.956772
    3485           0     -1847.641357    996.238770  -21343.90429     54.619164
    3486           0     -1847.641357    996.238770  -21700.00195     54.898827
    3487           0     -1847.641357    996.238770  -22056.09765     54.768654
    3488           0     -1847.641357    996.238770  -22412.19726     54.213531
    3489           0     -1847.641357    996.238770  -22768.29296     53.230423
    3490           0     -1847.641357    996.238770  -23124.39062     51.829735
    3491           0     -1847.641357    996.238770  -23480.48828     50.037029
    3492           0     -1847.641357    996.238770  -23836.58789     47.896435
    3493           0     -1847.641357    996.238770  -24192.68554     45.472794
    3494           0     -1847.641357    996.238831  -24548.78125     42.854160
    3495           0     -1847.641357    996.238831  -24904.87890     40.147736
    3496           0     -1847.641357    996.238831  -25260.97656     37.476311
    3497           0     -1847.641357    996.238831  -25617.07226     34.950565
    3498           0     -1847.641357    996.238831  -25973.17187     32.649315
    3499           0     -1847.641357    996.238831  -26329.26953     30.594036
    3500           0     -1847.641357    996.238831  -26685.36914     28.763866
    3501           0     -1847.641357    996.238831  -27041.46484     27.146120
    3502           0     -1847.641357    996.238831  -27397.56250     25.721031
    3503           0     -1847.641357    996.238831  -27753.66015     24.503428
    3504           0     -1847.641357    996.238831  -28109.75781     23.461899
    3505           0     -1847.641357    996.238831  -28465.85351     22.651930
    3506           0     -1847.641357    996.238770  -28821.95117     21.873978
    3507           0     -1902.441650    887.122437  -14578.05078     52.332344
    3508           0     -1902.441650    887.122437  -14934.14843     52.373981
    3509           0     -1902.441650    887.122437  -15290.24609     50.118225
    3510           0     -1902.441650    887.122437  -15646.34277     48.582813
    3511           0     -1902.441650    887.122437  -16002.44140     46.626942
    3512           0     -1902.441650    887.122437  -16358.53808     45.132999
    3513           0     -1902.441650    887.122437  -16714.63671     43.794777
    3514           0     -1902.441650    887.122437  -17070.73437     43.065319
    3515           0     -1902.441650    887.122437  -17426.83007     42.846485
    3516           0     -1902.441650    887.122437  -17782.92773     43.218483
    3517           0     -1902.441650    887.122437  -18139.02539     44.113052
    3518           0     -1902.441650    887.122437  -18495.12304     45.458256
    3519           0     -1902.441650    887.122437  -18851.22070     47.124287
    3520           0     -1902.441650    887.122437  -19207.31835     48.967361
    3521           0     -1902.441650    887.122437  -19563.41796     50.849602
    3522           0     -1902.441650    887.122437  -19919.51367     52.649963
    3523           0     -1902.441650    887.122437  -20275.61132     54.270447
    3524           0     -1902.441650    887.122437  -20631.70898     55.633595
    3525           0     -1902.441650    887.122437  -20987.80664     56.679867
    3526           0     -1902.441650    887.122437  -21343.90234     57.363918
    3527           0     -1902.441650    887.122437  -21700.00000     57.651409
    3528           0     -1902.441650    887.122437  -22056.09765     57.517185
    3529           0     -1902.441650    887.122437  -22412.19726     56.943802
    3530           0     -1902.441650    887.122437  -22768.29492     55.921806
    3531           0     -1902.441650    887.122437  -23124.39062     54.450558
    3532           0     -1902.441650    887.122437  -23480.48828     52.541088
    3533           0     -1902.441650    887.122437  -23836.58789     50.219673
    3534           0     -1902.441650    887.122437  -24192.68554     47.533745
    3535           0     -1902.441650    887.122437  -24548.78125     44.558525
    3536           0     -1902.441650    887.122437  -24904.87890     41.404022
    3537           0     -1902.441650    887.122437  -25260.97460     38.215118
    3538           0     -1902.441650    887.122437  -25617.07226     35.159779
    3539           0     -1902.441650    887.122437  -25973.17187     32.393600
    3540           0     -1902.441650    887.122437  -26329.26953     30.001589
    3541           0     -1902.441650    887.122437  -26685.36914     27.958721
    3542           0     -1902.441650    887.122437  -27041.46484     26.211771
    3543           0     -1902.441650    887.122437  -27397.56250     24.734484
    3544           0     -1902.441650    887.122437  -27753.66015     23.595474
    3545           0     -1902.441650    887.122437  -28109.75781     22.757528
    3546           0     -1902.441650    887.122437  -28465.85351     22.292801
    3547           0     -1902.441650    887.122437  -28821.94921     21.792387
    3548           0     -1950.804565    775.004395  -14578.05078     58.468941
    3549           0     -1950.804565    775.004395  -14934.14843     57.925766
    3550           0     -1950.804565    775.004395  -15290.24609     55.029530
    3551           0     -1950.804565    775.004395  -15646.34277     52.691208
    3552           0     -1950.804565    775.004395  -16002.44140     50.132969
    3553           0     -1950.804565    775.004395  -16358.53808     48.164677
    3554           0     -1950.804565    775.004395  -16714.63671     46.542137
    3555           0     -1950.804565    775.004395  -17070.73437     45.620811
    3556           0     -1950.804565    775.004395  -17426.83203     45.262928
    3557           0     -1950.804565    775.004395  -17782.92968     45.542698
    3558           0     -1950.804565    775.004395  -18139.02539     46.375690
    3559           0     -1950.804565    775.004395  -18495.12304     47.654449
    3560           0     -1950.804565    775.004395  -18851.22070     49.225609
    3561           0     -1950.804565    775.004395  -19207.31835     50.936100
    3562           0     -1950.804565    775.004395  -19563.41796     52.654297
    3563           0     -1950.804565    775.004395  -19919.51562     54.270668
    3564           0     -1950.804565    775.004395  -20275.61132     55.701759
    3565           0     -1950.804565    775.004395  -20631.70898     56.882359
    3566           0     -1950.804565    775.004395  -20987.80664     57.763184
    3567           0     -1950.804565    775.004395  -21343.90234     58.305431
    3568           0     -1950.804565    775.004395  -21700.00000     58.478558
    3569           0     -1950.804565    775.004395  -22056.09765     58.257729
    3570           0     -1950.804565    775.004395  -22412.19726     57.622631
    3571           0     -1950.804565    775.004395  -22768.29296     56.557514
    3572           0     -1950.804565    775.004395  -23124.39062     55.050953
    3573           0     -1950.804565    775.004395  -23480.48828     53.099266
    3574           0     -1950.804565    775.004395  -23836.58789     50.707634
    3575           0     -1950.804565    775.004395  -24192.68359     47.899597
    3576           0     -1950.804565    775.004395  -24548.78125     44.722019
    3577           0     -1950.804565    775.004395  -24904.87890     41.263317
    3578           0     -1950.804565    775.004395  -25260.97656     37.662655
    3579           0     -1950.804565    775.004395  -25617.07421     34.127251
    3580           0     -1950.804565    775.004395  -25973.17187     30.911842
    3581           0     -1950.804565    775.004395  -26329.26953     28.252211
    3582           0     -1950.804565    775.004395  -26685.36914     26.211580
    3583           0     -1950.804565    775.004395  -27041.46484     24.679253
    3584           0     -1950.804565    775.004395  -27397.56250     23.505232
    3585           0     -1950.804565    775.004395  -27753.66015     22.848736
    3586           0     -1950.804565    775.004395  -28109.75781     22.685612
    3587           0     -1950.804565    775.004395  -28465.85351     23.150917
    3588           0     -1950.804565    775.004395  -28821.95312     23.291298
    3589           0     -1992.566650    660.264038  -14578.05078     66.853622
    3590           0     -1992.566650    660.264038  -14934.14843     65.582161
    3591           0     -1992.566650    660.264038  -15290.24609     61.863247
    3592           0     -1992.566650    660.264038  -15646.34277     58.522324
    3593           0     -1992.566650    660.264038  -16002.44140     55.342003
    3594           0     -1992.566650    660.264038  -16358.53808     52.860130
    3595           0     -1992.566650    660.264038  -16714.63671     50.812546
    3596           0     -1992.566650    660.264038  -17070.73437     49.421707
    3597           0     -1992.566650    660.264038  -17426.83203     48.582264
    3598           0     -1992.566650    660.264038  -17782.92968     48.387577
    3599           0     -1992.566650    660.264038  -18139.02539     48.750038
    3600           0     -1992.566650    660.264038  -18495.12304     49.554874
    3601           0     -1992.566650    660.264038  -18851.22070     50.657578
    3602           0     -1992.566650    660.264038  -19207.31835     51.917797
    3603           0     -1992.566650    660.264038  -19563.41796     53.216064
    3604           0     -1992.566650    660.264038  -19919.51562     54.451866
    3605           0     -1992.566650    660.264038  -20275.61132     55.545269
    3606           0     -1992.566650    660.264038  -20631.70898     56.432320
    3607           0     -1992.566650    660.264038  -20987.80664     57.061470
    3608           0     -1992.566650    660.264038  -21343.90429     57.391598
    3609           0     -1992.566650    660.264038  -21700.00195     57.388275
    3610           0     -1992.566650    660.264038  -22056.09765     57.023819
    3611           0     -1992.566650    660.264038  -22412.19726     56.273842
    3612           0     -1992.566650    660.264038  -22768.29296     55.119453
    3613           0     -1992.566650    660.264038  -23124.39062     53.543324
    3614           0     -1992.566650    660.264038  -23480.48828     51.535572
    3615           0     -1992.566650    660.264038  -23836.58789     49.088852
    3616           0     -1992.566650    660.264038  -24192.68554     46.211956
    3617           0     -1992.566650    660.264038  -24548.78125     42.926414
    3618           0     -1992.566650    660.264038  -24904.87890     39.294552
    3619           0     -1992.566650    660.264038  -25260.97656     35.430698
    3620           0     -1992.566650    660.264038  -25617.07226     31.550507
    3621           0     -1992.566650    660.264038  -25973.17187     27.999079
    3622           0     -1992.566650    660.264038  -26329.26953     25.237137
    3623           0     -1992.566650    660.264038  -26685.36914     23.604437
    3624           0     -1992.566650    660.264038  -27041.46484     23.023180
    3625           0     -1992.566650    660.264038  -27397.56250     22.931158
    3626           0     -1992.566650    660.264038  -27753.66015     23.372747
    3627           0     -1992.566650    660.264038  -28109.75781     24.336573
    3628           0     -1992.566650    660.264038  -28465.85351     26.145571
    3629           0     -1992.566650    660.264038  -28821.95117     27.065056
    3630           0     -2027.586426    543.289490  -14578.05078     77.095253
    3631           0     -2027.586426    543.289490  -14934.14843     74.949783
    3632           0     -2027.586426    543.289490  -15290.24609     70.306122
    3633           0     -2027.586426    543.289490  -15646.34277     65.883621
    3634           0     -2027.586426    543.289490  -16002.44140     62.129776
    3635           0     -2027.586426    543.289490  -16358.53808     58.958427
    3636           0     -2027.586426    543.289490  -16714.63671     56.119556
    3637           0     -2027.586426    543.289490  -17070.73437     53.805408
    3638           0     -2027.586426    543.289490  -17426.83007     52.054688
    3639           0     -2027.586426    543.289490  -17782.92773     51.000198
    3640           0     -2027.586426    543.289490  -18139.02539     50.584507
    3641           0     -2027.586426    543.289490  -18495.12304     50.716015
    3642           0     -2027.586426    543.289490  -18851.22070     51.267666
    3643           0     -2027.586426    543.289490  -19207.31835     52.097317
    3644           0     -2027.586426    543.289490  -19563.41796     53.071503
    3645           0     -2027.586426    543.289490  -19919.51367     54.068817
    3646           0     -2027.586426    543.289490  -20275.61132     54.983761
    3647           0     -2027.586426    543.289490  -20631.70898     55.729778
    3648           0     -2027.586426    543.289490  -20987.80664     56.233833
    3649           0     -2027.586426    543.289490  -21343.90234     56.438625
    3650           0     -2027.586426    543.289490  -21700.00000     56.296772
    3651           0     -2027.586426    543.289490  -22056.09765     55.772373
    3652           0     -2027.586426    543.289490  -22412.19726     54.835926
    3653           0     -2027.586426    543.289490  -22768.29492     53.467560
    3654           0     -2027.586426    543.289490  -23124.39062     51.650150
    3655           0     -2027.586426    543.289490  -23480.48828     49.378048
    3656           0     -2027.586426    543.289490  -23836.58789     46.645432
    3657           0     -2027.586426    543.289490  -24192.68554     43.465271
    3658           0     -2027.586426    543.289490  -24548.78125     39.855442
    3659           0     -2027.586426    543.289490  -24904.87890     35.873123
    3660           0     -2027.586426    543.289490  -25260.97460     31.625629
    3661           0     -2027.586426    543.289490  -25617.07226     27.335783
    3662           0     -2027.586426    543.289490  -25973.17187     23.461422
    3663           0     -2027.586426    543.289490  -26329.26953     20.774187
    3664           0     -2027.586426    543.289429  -26685.36914     20.142107
    3665           0     -2027.586426    543.289429  -27041.46484     21.647465
    3666           0     -2027.586426    543.289429  -27397.56250     23.897825
    3667           0     -2027.586426    543.289429  -27753.66015     26.231873
    3668           0     -2027.586426    543.289429  -28109.75781     28.579649
    3669           0     -2027.586426    543.289429  -28465.85351     31.693949
    3670           0     -2027.586426    543.289490  -28821.94921     33.294537
    3671           0     -2055.745605    424.476654  -14578.05078     88.506165
    3672           0     -2055.745605    424.476654  -14934.14843     85.374763
    3673           0     -2055.745605    424.476654  -15290.24609     79.864304
    3674           0     -2055.745605    424.476654  -15646.34277     74.420868
    3675           0     -2055.745605    424.476654  -16002.44140     70.015137
    3676           0     -2055.745605    424.476654  -16358.53808     65.689880
    3677           0     -2055.745605    424.476654  -16714.63671     61.498966
    3678           0     -2055.745605    424.476654  -17070.73437     57.841812
    3679           0     -2055.745605    424.476654  -17426.83203     54.948257
    3680           0     -2055.745605    424.476654  -17782.92968     53.012917
    3681           0     -2055.745605    424.476654  -18139.02539     52.012844
    3682           0     -2055.745605    424.476654  -18495.12304     51.862495
    3683           0     -2055.745605    424.476654  -18851.22070     52.388908
    3684           0     -2055.745605    424.476654  -19207.31835     53.384922
    3685           0     -2055.745605    424.476654  -19563.41796     54.642006
    3686           0     -2055.745605    424.476654  -19919.51562     55.974503
    3687           0     -2055.745605    424.476654  -20275.61132     57.220001
    3688           0     -2055.745605    424.476654  -20631.70898     58.255512
    3689           0     -2055.745605    424.476654  -20987.80664     58.974148
    3690           0     -2055.745605    424.476654  -21343.90234     59.304405
    3691           0     -2055.745605    424.476654  -21700.00000     59.178936
    3692           0     -2055.745605    424.476654  -22056.09765     58.560436
    3693           0     -2055.745605    424.476654  -22412.19726     57.406315
    3694           0     -2055.745605    424.476654  -22768.29296     55.702198
    3695           0     -2055.745605    424.476654  -23124.39062     53.421867
    3696           0     -2055.745605    424.476654  -23480.48828     50.568710
    3697           0     -2055.745605    424.476654  -23836.58789     47.131657
    3698           0     -2055.745605    424.476654  -24192.68359     43.132362
    3699           0     -2055.745605    424.476654  -24548.78125     38.587727
    3700           0     -2055.745605    424.476654  -24904.87890     33.553669
    3701           0     -2055.745605    424.476654  -25260.97656     28.144722
    3702           0     -2055.745605    424.476654  -25617.07421     22.583282
    3703           0     -2055.745605    424.476654  -25973.17187     17.528765
    3704           0     -2055.745605    424.476654  -26329.26953     14.462449
    3705           0     -2055.745605    424.476654  -26685.36914     15.532742
    3706           0     -2055.745605    424.476624  -27041.46484     20.439346
    3707           0     -2055.745605    424.476624  -27397.56250     26.272753
    3708           0     -2055.745605    424.476624  -27753.66015     31.375858
    3709           0     -2055.745605    424.476624  -28109.75781     35.430336
    3710           0     -2055.745605    424.476624  -28465.85351     39.606815
    3711           0     -2055.745605    424.476654  -28821.95312     41.764618
    3712           0     -2076.948730    304.227539  -14578.05078    100.149948
    3713           0     -2076.948730    304.227539  -14934.14843     96.018623
    3714           0     -2076.948730    304.227539  -15290.24609     89.934227
    3715           0     -2076.948730    304.227539  -15646.34277     83.477882
    3716           0     -2076.948730    304.227539  -16002.44140     77.947777
    3717           0     -2076.948730    304.227539  -16358.53808     71.732269
    3718           0     -2076.948730    304.227539  -16714.63671     65.783226
    3719           0     -2076.948730    304.227539  -17070.73437     60.855232
    3720           0     -2076.948730    304.227539  -17426.83203     57.282986
    3721           0     -2076.948730    304.227539  -17782.92968     55.286911
    3722           0     -2076.948730    304.227539  -18139.02539     54.760033
    3723           0     -2076.948730    304.227539  -18495.12304     55.475468
    3724           0     -2076.948730    304.227539  -18851.22070     57.068539
    3725           0     -2076.948730    304.227539  -19207.31835     59.189205
    3726           0     -2076.948730    304.227539  -19563.41796     61.515224
    3727           0     -2076.948730    304.227539  -19919.51562     63.803181
    3728           0     -2076.948730    304.227539  -20275.61132     65.856842
    3729           0     -2076.948730    304.227539  -20631.70898     67.541977
    3730           0     -2076.948730    304.227539  -20987.80664     68.750618
    3731           0     -2076.948730    304.227539  -21343.90429     69.410736
    3732           0     -2076.948730    304.227539  -21700.00195     69.462837
    3733           0     -2076.948730    304.227539  -22056.09765     68.864899
    3734           0     -2076.948730    304.227539  -22412.19726     67.583435
    3735           0     -2076.948730    304.227539  -22768.29296     65.589897
    3736           0     -2076.948730    304.227539  -23124.39062     62.866554
    3737           0     -2076.948730    304.227539  -23480.48828     59.389988
    3738           0     -2076.948730    304.227539  -23836.58789     55.156513
    3739           0     -2076.948730    304.227539  -24192.68554     50.143051
    3740           0     -2076.948730    304.227539  -24548.78125     44.368568
    3741           0     -2076.948730    304.227539  -24904.87890     37.805111
    3742           0     -2076.948730    304.227539  -25260.97656     30.528694
    3743           0     -2076.948730    304.227539  -25617.07226     22.519323
    3744           0     -2076.948730    304.227539  -25973.17187     14.122586
    3745           0     -2076.948730    304.227539  -26329.26953      6.611043
    3746           0     -2076.948730    304.227539  -26685.36914      9.097246
    3747           0     -2076.948730    304.227539  -27041.46484     18.701838
    3748           0     -2076.948730    304.227539  -27397.56250     28.762806
    3749           0     -2076.948730    304.227539  -27753.66015     37.458801
    3750           0     -2076.948730    304.227539  -28109.75781     44.101757
    3751           0     -2076.948730    304.227539  -28465.85351     49.324738
    3752           0     -2076.948730    304.227539  -28821.95117     52.084782
    3753           0     -2091.124023    182.948975  -14578.05078    110.907196
    3754           0     -2091.124023    182.948959  -14934.14843    106.017601
    3755           0     -2091.124023    182.948944  -15290.24609     99.754181
    3756           0     -2091.124023    182.948944  -15646.34277     91.899704
    3757           0     -2091.124023    182.948944  -16002.44140     84.197273
    3758           0     -2091.124023    182.948944  -16358.53808     75.662216
    3759           0     -2091.124023    182.948944  -16714.63671     68.445663
    3760           0     -2091.124023    182.948944  -17070.73437     63.461285
    3761           0     -2091.124023    182.948944  -17426.83007     60.798717
    3762           0     -2091.124023    182.948944  -17782.92773     60.470322
    3763           0     -2091.124023    182.948944  -18139.02539     61.943462
    3764           0     -2091.124023    182.948929  -18495.12304     64.654869
    3765           0     -2091.124023    182.948914  -18851.22070     68.043663
    3766           0     -2091.124023    182.948914  -19207.31835     71.663780
    3767           0     -2091.124023    182.948914  -19563.41796     75.210915
    3768           0     -2091.124023    182.948914  -19919.51367     78.448631
    3769           0     -2091.124023    182.948914  -20275.61132     81.246689
    3770           0     -2091.124023    182.948914  -20631.70898     83.481682
    3771           0     -2091.124023    182.948914  -20987.80664     85.104713
    3772           0     -2091.124023    182.948914  -21343.90234     86.041542
    3773           0     -2091.124023    182.948898  -21700.00000     86.275604
    3774           0     -2091.124023    182.948883  -22056.09765     85.753502
    3775           0     -2091.124023    182.948883  -22412.19726     84.466484
    3776           0     -2091.124023    182.948883  -22768.29492     82.371216
    3777           0     -2091.124023    182.948883  -23124.39062     79.454941
    3778           0     -2091.124023    182.948883  -23480.48828     75.678993
    3779           0     -2091.124023    182.948868  -23836.58789     71.023933
    3780           0     -2091.124023    182.948868  -24192.68554     65.450104
    3781           0     -2091.124023    182.948868  -24548.78125     58.940502
    3782           0     -2091.124023    182.948868  -24904.87890     51.441639
    3783           0     -2091.124023    182.948853  -25260.97460     42.972275
    3784           0     -2091.124023    182.948853  -25617.07226     33.444710
    3785           0     -2091.124023    182.948853  -25973.17187     23.018202
    3786           0     -2091.124023    182.948837  -26329.26953     11.759695
    3787           0     -2091.124023    182.948837  -26685.36914      4.915115
    3788           0     -2091.124023    182.948837  -27041.46484     16.021837
    3789           0     -2091.124023    182.948837  -27397.56250     29.715954
    3790           0     -2091.124023    182.948822  -27753.66015     42.550114
    3791           0     -2091.124023    182.948822  -28109.75781     53.214119
    3792           0     -2091.124023    182.948822  -28465.85351     60.061756
    3793           0     -2091.124023    182.948898  -28821.94921     63.672825
    3794           0     -2098.223633     61.051418  -14578.05078    119.612282
    3795           0     -2098.223633     61.051414  -14934.14843    114.632538
    3796           0     -2098.223633     61.051407  -15290.24609    108.261536
    3797           0     -2098.223633     61.051407  -15646.34277     97.755806
    3798           0     -2098.223633     61.051399  -16002.44140     86.960831
    3799           0     -2098.223633     61.051395  -16358.53808     77.325676
    3800           0     -2098.223633     61.051395  -16714.63671     71.106865
    3801           0     -2098.223633     61.051392  -17070.73437     68.506439
    3802           0     -2098.223633     61.051384  -17426.83203     68.874283
    3803           0     -2098.223633     61.051384  -17782.92968     71.503532
    3804           0     -2098.223633     61.051384  -18139.02539     75.446663
    3805           0     -2098.223633     61.051376  -18495.12304     80.008835
    3806           0     -2098.223633     61.051373  -18851.22070     84.696793
    3807           0     -2098.223633     61.051373  -19207.31835     89.202240
    3808           0     -2098.223633     61.051369  -19563.41796     93.296913
    3809           0     -2098.223633     61.051361  -19919.51562     96.903679
    3810           0     -2098.223633     61.051361  -20275.61132     99.883690
    3811           0     -2098.223633     61.051357  -20631.70898    102.262917
    3812           0     -2098.223633     61.051353  -20987.80664    103.927345
    3813           0     -2098.223633     61.051353  -21343.90234    104.940041
    3814           0     -2098.223633     61.051346  -21700.00000    105.194214
    3815           0     -2098.223633     61.051342  -22056.09765    104.754951
    3816           0     -2098.223633     61.051342  -22412.19726    103.521011
    3817           0     -2098.223633     61.051338  -22768.29296    101.537537
    3818           0     -2098.223633     61.051331  -23124.39062     98.715668
    3819           0     -2098.223633     61.051331  -23480.48828     95.060204
    3820           0     -2098.223633     61.051323  -23836.58789     90.509323
    3821           0     -2098.223633     61.051319  -24192.68359     85.003891
    3822           0     -2098.223633     61.051319  -24548.78125     78.535767
    3823           0     -2098.223633     61.051315  -24904.87890     70.950981
    3824           0     -2098.223633     61.051308  -25260.97656     62.347733
    3825           0     -2098.223633     61.051308  -25617.07421     52.460262
    3826           0     -2098.223633     61.051308  -25973.17187     41.634109
    3827           0     -2098.223633     61.051300  -26329.26953     29.799908
    3828           0     -2098.223633     61.051296  -26685.36914     18.985386
    3829           0     -2098.223633     61.051296  -27041.46484     16.640890
    3830           0     -2098.223633     61.051292  -27397.56250     28.166735
    3831           0     -2098.223633     61.051285  -27753.66015     44.607826
    3832           0     -2098.223633     61.051285  -28109.75781     60.777740
    3833           0     -2098.223633     61.051281  -28465.85351     70.688713
    3834           0     -2098.223633     61.051346  -28821.95312     75.668053
    3835           0     -2098.223633    -61.052704  -14578.05078    125.196190
    3836           0     -2098.223633    -61.052704  -14934.14843    121.431801
    3837           0     -2098.223633    -61.052704  -15290.24609    113.459030
    3838           0     -2098.223633    -61.052704  -15646.34277     98.775169
    3839           0     -2098.223633    -61.052704  -16002.44140     86.735596
    3840           0     -2098.223633    -61.052704  -16358.53808     80.108620
    3841           0     -2098.223633    -61.052704  -16714.63671     78.153381
    3842           0     -2098.223633    -61.052704  -17070.73437     79.789597
    3843           0     -2098.223633    -61.052704  -17426.83203     83.532509
    3844           0     -2098.223633    -61.052704  -17782.92968     88.281609
    3845           0     -2098.223633    -61.052704  -18139.02539     93.447411
    3846           0     -2098.223633    -61.052704  -18495.12304     98.403023
    3847           0     -2098.223633    -61.052704  -18851.22070    103.146507
    3848           0     -2098.223633    -61.052704  -19207.31835    107.284645
    3849           0     -2098.223633    -61.052704  -19563.41796    111.015076
    3850           0     -2098.223633    -61.052704  -19919.51562    114.040848
    3851           0     -2098.223633    -61.052704  -20275.61132    116.608818
    3852           0     -2098.223633    -61.052704  -20631.70898    118.462692
    3853           0     -2098.223633    -61.052704  -20987.80664    119.848480
    3854           0     -2098.223633    -61.052704  -21343.90429    120.526093
    3855           0     -2098.223633    -61.052704  -21700.00195    120.724243
    3856           0     -2098.223633    -61.052704  -22056.09765    120.206261
    3857           0     -2098.223633    -61.052704  -22412.19726    119.178711
    3858           0     -2098.223633    -61.052704  -22768.29296    117.397835
    3859           0     -2098.223633    -61.052704  -23124.39062    115.049011
    3860           0     -2098.223633    -61.052704  -23480.48828    111.871262
    3861           0     -2098.223633    -61.052704  -23836.58789    108.032661
    3862           0     -2098.223633    -61.052704  -24192.68554    103.241066
    3863           0     -2098.223633    -61.052704  -24548.78125     97.656776
    3864           0     -2098.223633    -61.052704  -24904.87890     90.938240
    3865           0     -2098.223633    -61.052711  -25260.97656     83.257820
    3866           0     -2098.223633    -61.052711  -25617.07226     74.219650
    3867           0     -2098.223633    -61.052711  -25973.17187     64.066246
    3868           0     -2098.223633    -61.052711  -26329.26953     52.522137
    3869           0     -2098.223633    -61.052711  -26685.36914     40.387444
    3870           0     -2098.223633    -61.052711  -27041.46484     29.843159
    3871           0     -2098.223633    -61.052711  -27397.56250     28.531809
    3872           0     -2098.223633    -61.052711  -27753.66015     41.911697
    3873           0     -2098.223633    -61.052711  -28109.75781     64.113968
    3874           0     -2098.223633    -61.052711  -28465.85351     79.353889
    3875           0     -2098.223633    -61.052708  -28821.95117     87.024857
    3876           0     -2091.123779   -182.950317  -14578.05078    127.285614
    3877           0     -2091.123779   -182.950317  -14934.14843    125.644844
    3878           0     -2091.123779   -182.950317  -15290.24609    112.606415
    3879           0     -2091.123779   -182.950317  -15646.34277     96.172859
    3880           0     -2091.123779   -182.950317  -16002.44140     90.609100
    3881           0     -2091.123779   -182.950333  -16358.53808     90.361153
    3882           0     -2091.123779   -182.950333  -16714.63671     93.433334
    3883           0     -2091.123779   -182.950348  -17070.73437     97.650230
    3884           0     -2091.123779   -182.950348  -17426.83007    102.333984
    3885           0     -2091.123779   -182.950348  -17782.92773    106.825768
    3886           0     -2091.123779   -182.950348  -18139.02539    110.916100
    3887           0     -2091.123779   -182.950348  -18495.12304    114.597984
    3888           0     -2091.123779   -182.950363  -18851.22070    117.669060
    3889           0     -2091.123779   -182.950363  -19207.31835    120.367935
    3890           0     -2091.123779   -182.950363  -19563.41796    122.448975
    3891           0     -2091.123779   -182.950378  -19919.51367    124.229637
    3892           0     -2091.123779   -182.950378  -20275.61132    125.440788
    3893           0     -2091.123779   -182.950378  -20631.70898    126.407494
    3894           0     -2091.123779   -182.950378  -20987.80664    126.854126
    3895           0     -2091.123779   -182.950378  -21343.90234    127.084488
    3896           0     -2091.123779   -182.950378  -21700.00000    126.822426
    3897           0     -2091.123779   -182.950394  -22056.09765    126.340874
    3898           0     -2091.123779   -182.950394  -22412.19726    125.363609
    3899           0     -2091.123779   -182.950394  -22768.29492    124.127548
    3900           0     -2091.123779   -182.950409  -23124.39062    122.352951
    3901           0     -2091.123779   -182.950409  -23480.48828    120.238152
    3902           0     -2091.123779   -182.950409  -23836.58789    117.497948
    3903           0     -2091.123779   -182.950409  -24192.68554    114.279404
    3904           0     -2091.123779   -182.950409  -24548.78125    110.298241
    3905           0     -2091.123779   -182.950409  -24904.87890    105.623642
    3906           0     -2091.123779   -182.950424  -25260.97460     99.990028
    3907           0     -2091.123779   -182.950424  -25617.07226     93.347153
    3908           0     -2091.123779   -182.950424  -25973.17187     85.486664
    3909           0     -2091.123779   -182.950424  -26329.26953     76.227730
    3910           0     -2091.123779   -182.950439  -26685.36914     65.593559
    3911           0     -2091.123779   -182.950439  -27041.46484     53.798470
    3912           0     -2091.123779   -182.950439  -27397.56250     43.314400
    3913           0     -2091.123779   -182.950455  -27753.66015     40.722683
    3914           0     -2091.123779   -182.950455  -28109.75781     59.626194
    3915           0     -2091.123779   -182.950455  -28465.85351     83.731239
    3916           0     -2091.123779   -182.950378  -28821.94921     95.619499
    3917           0     -2076.948242   -304.228821  -14578.05078    126.690437
    3918           0     -2076.948242   -304.228821  -14934.14843    124.291138
    3919           0     -2076.948242   -304.228821  -15290.24609    109.491066
    3920           0     -2076.948242   -304.228821  -15646.34277    103.887352
    3921           0     -2076.948242   -304.228821  -16002.44140    108.138138
    3922           0     -2076.948242   -304.228821  -16358.53808    110.766266
    3923           0     -2076.948242   -304.228821  -16714.63671    114.654793
    3924           0     -2076.948242   -304.228821  -17070.73437    116.911987
    3925           0     -2076.948242   -304.228821  -17426.83203    119.282028
    3926           0     -2076.948242   -304.228821  -17782.92968    120.438133
    3927           0     -2076.948242   -304.228821  -18139.02539    121.592995
    3928           0     -2076.948242   -304.228851  -18495.12304    121.876968
    3929           0     -2076.948242   -304.228882  -18851.22070    122.194214
    3930           0     -2076.948242   -304.228882  -19207.31835    121.901337
    3931           0     -2076.948242   -304.228882  -19563.41796    121.691704
    3932           0     -2076.948242   -304.228882  -19919.51562    121.066277
    3933           0     -2076.948242   -304.228882  -20275.61132    120.563332
    3934           0     -2076.948242   -304.228882  -20631.70898    119.781525
    3935           0     -2076.948242   -304.228882  -20987.80664    119.145920
    3936           0     -2076.948242   -304.228882  -21343.90234    118.316917
    3937           0     -2076.948242   -304.228882  -21700.00000    117.642136
    3938           0     -2076.948242   -304.228882  -22056.09765    116.810509
    3939           0     -2076.948242   -304.228882  -22412.19726    116.125153
    3940           0     -2076.948242   -304.228882  -22768.29296    115.272552
    3941           0     -2076.948242   -304.228882  -23124.39062    114.535133
    3942           0     -2076.948242   -304.228882  -23480.48828    113.569778
    3943           0     -2076.948242   -304.228882  -23836.58789    112.656425
    3944           0     -2076.948242   -304.228912  -24192.68359    111.398102
    3945           0     -2076.948242   -304.228912  -24548.78125    110.077881
    3946           0     -2076.948242   -304.228912  -24904.87890    108.231262
    3947           0     -2076.948242   -304.228943  -25260.97656    106.126656
    3948           0     -2076.948242   -304.228943  -25617.07421    103.235695
    3949           0     -2076.948242   -304.228943  -25973.17187     99.753006
    3950           0     -2076.948242   -304.228943  -26329.26953     95.106049
    3951           0     -2076.948242   -304.228943  -26685.36914     89.312416
    3952           0     -2076.948242   -304.228943  -27041.46484     81.784256
    3953           0     -2076.948242   -304.228943  -27397.56250     72.589287
    3954           0     -2076.948242   -304.228943  -27753.66015     61.977394
    3955           0     -2076.948242   -304.228943  -28109.75781     57.683910
    3956           0     -2076.948242   -304.228943  -28465.85351     78.222939
    3957           0     -2076.948242   -304.228882  -28821.95312    100.161522
    3958           0     -2055.882568   -423.897186  -14578.05078    123.970619
    3959           0     -2055.882568   -423.897186  -14934.14843    126.722862
    3960           0     -2055.882568   -423.897186  -15290.24609    134.027084
    3961           0     -2055.882568   -423.897186  -15646.34277    136.213135
    3962           0     -2055.882568   -423.897186  -16002.44140    137.057297
    3963           0     -2055.882568   -423.897186  -16358.53808    135.763397
    3964           0     -2055.882568   -423.897186  -16714.63671    132.866013
    3965           0     -2055.882568   -423.897186  -17070.73437    129.995010
    3966           0     -2055.882568   -423.897186  -17426.83203    125.982971
    3967           0     -2055.882568   -423.897186  -17782.92968    122.367836
    3968           0     -2055.882568   -423.897186  -18139.02539    118.118607
    3969           0     -2055.882568   -423.897217  -18495.12304    114.280861
    3970           0     -2055.882568   -423.897217  -18851.22070    110.199654
    3971           0     -2055.882568   -423.897217  -19207.31835    106.505424
    3972           0     -2055.882568   -423.897217  -19563.41796    102.838699
    3973           0     -2055.882568   -423.897217  -19919.51562     99.544266
    3974           0     -2055.882568   -423.897217  -20275.61132     96.454948
    3975           0     -2055.882568   -423.897217  -20631.70898     93.735977
    3976           0     -2055.882568   -423.897217  -20987.80664     91.334808
    3977           0     -2055.882568   -423.897217  -21343.90429     89.314835
    3978           0     -2055.882568   -423.897217  -21700.00195     87.681412
    3979           0     -2055.882568   -423.897217  -22056.09765     86.453354
    3980           0     -2055.882568   -423.897217  -22412.19726     85.644791
    3981           0     -2055.882568   -423.897217  -22768.29296     85.279243
    3982           0     -2055.882568   -423.897247  -23124.39062     85.323593
    3983           0     -2055.882568   -423.897247  -23480.48828     85.856697
    3984           0     -2055.882568   -423.897247  -23836.58789     86.726097
    3985           0     -2055.882568   -423.897247  -24192.68554     88.135849
    3986           0     -2055.882568   -423.897247  -24548.78125     89.710922
    3987           0     -2055.882568   -423.897247  -24904.87890     91.890091
    3988           0     -2055.882568   -423.897247  -25260.97656     93.923813
    3989           0     -2055.882568   -423.897247  -25617.07226     96.656746
    3990           0     -2055.882568   -423.897247  -25973.17187     98.736900
    3991           0     -2055.882568   -423.897247  -26329.26953    101.640610
    3992           0     -2055.882568   -423.897247  -26685.36914    103.097206
    3993           0     -2055.882568   -423.897247  -27041.46484    105.285027
    3994           0     -2055.882568   -423.897247  -27397.56250    104.830643
    3995           0     -2055.882568   -423.897247  -27753.66015    103.158501
    3996           0     -2055.882568   -423.897247  -28109.75781     97.813911
    3997           0     -2055.882568   -423.897247  -28465.85351     83.091026
    3998           0     -2055.882568   -423.897217  -28821.95117     95.439453
    3999           0     -2028.065186   -541.566406  -14578.05078    137.316513
    4000           0     -2028.065186   -541.566406  -14934.14843    226.306519
    4001           0     -2028.065186   -541.566406  -15290.24609    197.001038
    4002           0     -2028.065186   -541.566406  -15646.34277    179.582932
    4003           0     -2028.065186   -541.566406  -16002.44140    168.651245
    4004           0     -2028.065186   -541.566406  -16358.53808    151.109848
    4005           0     -2028.065186   -541.566406  -16714.63671    140.346481
    4006           0     -2028.065186   -541.566406  -17070.73437    127.040779
    4007           0     -2028.065186   -541.566406  -17426.83203    116.581284
    4008           0     -2028.065186   -541.566406  -17782.92968    106.097534
    4009           0     -2028.065186   -541.566406  -18139.02539     96.670387
    4010           0     -2028.065186   -541.566406  -18495.12304     88.223145
    4011           0     -2028.065186   -541.566406  -18851.22070     80.193001
    4012           0     -2028.065186   -541.566406  -19207.31835     73.458199
    4013           0     -2028.065186   -541.566406  -19563.41796     66.910362
    4014           0     -2028.065186   -541.566406  -19919.51562     61.660614
    4015           0     -2028.065186   -541.566406  -20275.61328     56.456745
    4016           0     -2028.065186   -541.566406  -20631.70898     52.410866
    4017           0     -2028.065186   -541.566406  -20987.80664     48.263702
    4018           0     -2028.065186   -541.566406  -21343.90429     45.116467
    4019           0     -2028.065186   -541.566406  -21700.00000     41.743473
    4020           0     -2028.065186   -541.566406  -22056.09765     39.336037
    4021           0     -2028.065186   -541.566406  -22412.19726     36.704102
    4022           0     -2028.065186   -541.566406  -22768.29296     35.290413
    4023           0     -2028.065186   -541.566467  -23124.39062     33.909237
    4024           0     -2028.065186   -541.566467  -23480.48828     34.349152
    4025           0     -2028.065186   -541.566467  -23836.58789     35.278084
    4026           0     -2028.065186   -541.566467  -24192.68359     38.568520
    4027           0     -2028.065186   -541.566467  -24548.78125     42.578552
    4028           0     -2028.065186   -541.566467  -24904.87890     48.879623
    4029           0     -2028.065186   -541.566467  -25260.97656     55.925041
    4030           0     -2028.065186   -541.566467  -25617.07226     64.724976
    4031           0     -2028.065186   -541.566467  -25973.17187     74.690331
    4032           0     -2028.065186   -541.566467  -26329.26953     85.414703
    4033           0     -2028.065186   -541.566467  -26685.36914     98.855507
    4034           0     -2028.065186   -541.566467  -27041.46484    110.942703
    4035           0     -2028.065186   -541.566467  -27397.56250    129.206635
    4036           0     -2028.065186   -541.566467  -27753.66015    143.097885
    4037           0     -2028.065186   -541.566467  -28109.75781    161.680634
    4038           0     -2028.065186   -541.566467  -28465.85351    198.164474
    4039           0     -2028.065186   -541.566406  -28821.95117    110.942535
    4040           0     -1992.907837   -659.121582  -14578.05078    164.797836
    4041           0     -1992.907837   -659.121582  -14934.14843    238.800049
    4042           0     -1992.907837   -659.121582  -15290.24609    209.529831
    4043           0     -1992.907837   -659.121582  -15646.34277    190.554840
    4044           0     -1992.907837   -659.121582  -16002.44140    182.943649
    4045           0     -1992.907837   -659.121582  -16358.53808    164.808807
    4046           0     -1992.907837   -659.121582  -16714.63671    156.940582
    4047           0     -1992.907837   -659.121582  -17070.73437    143.408081
    4048           0     -1992.907837   -659.121582  -17426.83203    135.144135
    4049           0     -1992.907837   -659.121582  -17782.92968    124.453766
    4050           0     -1992.907837   -659.121582  -18139.02539    116.519180
    4051           0     -1992.907837   -659.121582  -18495.12304    107.698364
    4052           0     -1992.907837   -659.121582  -18851.22070    100.538506
    4053           0     -1992.907837   -659.121582  -19207.31835     93.224236
    4054           0     -1992.907837   -659.121582  -19563.41796     87.098213
    4055           0     -1992.907837   -659.121582  -19919.51562     81.184311
    4056           0     -1992.907837   -659.121582  -20275.61132     76.249771
    4057           0     -1992.907837   -659.121582  -20631.70898     71.731911
    4058           0     -1992.907837   -659.121582  -20987.80664     68.107628
    4059           0     -1992.907837   -659.121582  -21343.90429     65.043106
    4060           0     -1992.907837   -659.121582  -21700.00195     62.857571
    4061           0     -1992.907837   -659.121582  -22056.09765     61.359222
    4062           0     -1992.907837   -659.121582  -22412.19726     60.766075
    4063           0     -1992.907837   -659.121582  -22768.29296     60.971840
    4064           0     -1992.907837   -659.121582  -23124.39062     62.112473
    4065           0     -1992.907837   -659.121582  -23480.48828     64.114723
    4066           0     -1992.907837   -659.121582  -23836.58789     67.057594
    4067           0     -1992.907837   -659.121582  -24192.68359     70.839272
    4068           0     -1992.907837   -659.121582  -24548.78125     75.572624
    4069           0     -1992.907837   -659.121582  -24904.87890     81.002640
    4070           0     -1992.907837   -659.121582  -25260.97656     87.524895
    4071           0     -1992.907837   -659.121582  -25617.07421     94.388145
    4072           0     -1992.907837   -659.121582  -25973.17187    102.907005
    4073           0     -1992.907837   -659.121582  -26329.26953    110.902634
    4074           0     -1992.907837   -659.121582  -26685.36718    122.177521
    4075           0     -1992.907837   -659.121582  -27041.46484    130.854462
    4076           0     -1992.907837   -659.121582  -27397.56250    146.299545
    4077           0     -1992.907837   -659.121582  -27753.66015    155.944641
    4078           0     -1992.907837   -659.121582  -28109.75781    171.269974
    4079           0     -1992.907837   -659.121582  -28465.85546    200.921448
    4080           0     -1992.907837   -659.121582  -28821.95312    111.798454
    4081           0     -1950.803955   -775.005493  -14578.05078    181.553513
    4082           0     -1950.803955   -775.005493  -14934.14843    159.713470
    4083           0     -1950.803955   -775.005493  -15290.24609    156.970886
    4084           0     -1950.803955   -775.005493  -15646.34277    151.774368
    4085           0     -1950.803955   -775.005493  -16002.44140    152.642929
    4086           0     -1950.803955   -775.005493  -16358.53808    147.515518
    4087           0     -1950.803955   -775.005493  -16714.63671    145.374496
    4088           0     -1950.803955   -775.005493  -17070.73437    140.644028
    4089           0     -1950.803955   -775.005493  -17426.83203    137.273697
    4090           0     -1950.803955   -775.005493  -17782.92968    132.861908
    4091           0     -1950.803955   -775.005493  -18139.02539    129.131760
    4092           0     -1950.803955   -775.005493  -18495.12304    125.060097
    4093           0     -1950.803955   -775.005493  -18851.22070    121.423103
    4094           0     -1950.803955   -775.005493  -19207.31835    117.794022
    4095           0     -1950.803955   -775.005493  -19563.41796    114.536743
    4096           0     -1950.803955   -775.005493  -19919.51562    111.473419
    4097           0     -1950.803955   -775.005493  -20275.61132    108.788567
    4098           0     -1950.803955   -775.005493  -20631.70898    106.397484
    4099           0     -1950.803955   -775.005493  -20987.80664    104.409622
    4100           0     -1950.803955   -775.005493  -21343.90429    102.764740
    4101           0     -1950.803955   -775.005493  -21700.00195    101.542389
    4102           0     -1950.803955   -775.005493  -22056.09765    100.678795
    4103           0     -1950.803955   -775.005493  -22412.19726    100.238739
    4104           0     -1950.803955   -775.005493  -22768.29296    100.147758
    4105           0     -1950.803955   -775.005493  -23124.39062    100.451790
    4106           0     -1950.803955   -775.005493  -23480.48828    101.073753
    4107           0     -1950.803955   -775.005493  -23836.58789    102.019302
    4108           0     -1950.803955   -775.005493  -24192.68554    103.234467
    4109           0     -1950.803955   -775.005493  -24548.78125    104.639877
    4110           0     -1950.803955   -775.005493  -24904.87890    106.258034
    4111           0     -1950.803955   -775.005493  -25260.97656    107.842644
    4112           0     -1950.803955   -775.005493  -25617.07226    109.586945
    4113           0     -1950.803955   -775.005493  -25973.17187    110.937431
    4114           0     -1950.803955   -775.005493  -26329.26953    112.383011
    4115           0     -1950.803955   -775.005493  -26685.36914    112.854645
    4116           0     -1950.803955   -775.005493  -27041.46484    113.111885
    4117           0     -1950.803955   -775.005493  -27397.56250    111.465912
    4118           0     -1950.803955   -775.005493  -27753.66015    107.672630
    4119           0     -1950.803955   -775.005493  -28109.75781    101.078018
    4120           0     -1950.803955   -775.005493  -28465.85351     86.954765
    4121           0     -1950.803955   -775.005493  -28821.95117     98.797768
    4122           0     -1902.441040   -887.123535  -14578.05078    189.673004
    4123           0     -1902.441040   -887.123535  -14934.14843    172.064194
    4124           0     -1902.441040   -887.123535  -15290.24609    141.924896
    4125           0     -1902.441040   -887.123535  -15646.34277    127.633041
    4126           0     -1902.441040   -887.123535  -16002.44140    125.371895
    4127           0     -1902.441040   -887.123535  -16358.53808    122.988335
    4128           0     -1902.441040   -887.123535  -16714.63671    123.262909
    4129           0     -1902.441040   -887.123535  -17070.73437    123.013725
    4130           0     -1902.441040   -887.123535  -17426.83007    123.198616
    4131           0     -1902.441040   -887.123535  -17782.92773    123.113678
    4132           0     -1902.441040   -887.123535  -18139.02539    122.969246
    4133           0     -1902.441040   -887.123535  -18495.12304    122.682220
    4134           0     -1902.441040   -887.123535  -18851.22070    122.274940
    4135           0     -1902.441040   -887.123535  -19207.31835    121.786018
    4136           0     -1902.441040   -887.123535  -19563.41796    121.223740
    4137           0     -1902.441040   -887.123535  -19919.51367    120.619339
    4138           0     -1902.441040   -887.123535  -20275.61132    119.999237
    4139           0     -1902.441040   -887.123535  -20631.70898    119.363686
    4140           0     -1902.441040   -887.123535  -20987.80664    118.751770
    4141           0     -1902.441040   -887.123535  -21343.90234    118.134651
    4142           0     -1902.441040   -887.123535  -21700.00000    117.554955
    4143           0     -1902.441040   -887.123535  -22056.09765    116.958405
    4144           0     -1902.441040   -887.123535  -22412.19726    116.385780
    4145           0     -1902.441040   -887.123535  -22768.29492    115.756721
    4146           0     -1902.441040   -887.123535  -23124.39062    115.108391
    4147           0     -1902.441040   -887.123535  -23480.48828    114.329552
    4148           0     -1902.441040   -887.123535  -23836.58789    113.451736
    4149           0     -1902.441040   -887.123535  -24192.68554    112.327065
    4150           0     -1902.441040   -887.123535  -24548.78125    110.974274
    4151           0     -1902.441040   -887.123535  -24904.87890    109.205162
    4152           0     -1902.441040   -887.123535  -25260.97460    107.007828
    4153           0     -1902.441040   -887.123535  -25617.07226    104.149879
    4154           0     -1902.441040   -887.123535  -25973.17187    100.563644
    4155           0     -1902.441040   -887.123535  -26329.26953     95.939789
    4156           0     -1902.441040   -887.123596  -26685.36914     90.191216
    4157           0     -1902.441040   -887.123596  -27041.46484     82.804619
    4158           0     -1902.441040   -887.123596  -27397.56250     74.336990
    4159           0     -1902.441040   -887.123596  -27753.66015     64.707848
    4160           0     -1902.441040   -887.123596  -28109.75781     62.237652
    4161           0     -1902.441040   -887.123596  -28465.85351     83.574478
    4162           0     -1902.441040   -887.123596  -28821.94921    100.665215
    4163           0     -1847.640625   -996.239746  -14578.05078    188.817047
    4164           0     -1847.640625   -996.239746  -14934.14843    180.600372
    4165           0     -1847.640625   -996.239746  -15290.24609    154.277390
    4166           0     -1847.640625   -996.239746  -15646.34277    127.409477
    4167           0     -1847.640625   -996.239746  -16002.44140    114.167282
    4168           0     -1847.640625   -996.239746  -16358.53808    105.588127
    4169           0     -1847.640625   -996.239746  -16714.63671    102.424370
    4170           0     -1847.640625   -996.239746  -17070.73437    101.208084
    4171           0     -1847.640625   -996.239746  -17426.83203    101.957596
    4172           0     -1847.640625   -996.239746  -17782.92968    103.244301
    4173           0     -1847.640625   -996.239746  -18139.02539    105.084534
    4174           0     -1847.640625   -996.239746  -18495.12304    106.921883
    4175           0     -1847.640625   -996.239746  -18851.22070    108.769402
    4176           0     -1847.640625   -996.239746  -19207.31835    110.434097
    4177           0     -1847.640625   -996.239746  -19563.41796    111.903778
    4178           0     -1847.640625   -996.239746  -19919.51562    113.146622
    4179           0     -1847.640625   -996.239746  -20275.61132    114.118240
    4180           0     -1847.640625   -996.239746  -20631.70898    114.861176
    4181           0     -1847.640625   -996.239746  -20987.80664    115.300385
    4182           0     -1847.640625   -996.239746  -21343.90234    115.511421
    4183           0     -1847.640625   -996.239746  -21700.00000    115.391617
    4184           0     -1847.640625   -996.239746  -22056.09765    115.028702
    4185           0     -1847.640625   -996.239746  -22412.19726    114.293961
    4186           0     -1847.640625   -996.239746  -22768.29296    113.275948
    4187           0     -1847.640625   -996.239746  -23124.39062    111.819977
    4188           0     -1847.640625   -996.239746  -23480.48828    110.007233
    4189           0     -1847.640625   -996.239746  -23836.58789    107.656693
    4190           0     -1847.640625   -996.239746  -24192.68359    104.832993
    4191           0     -1847.640625   -996.239746  -24548.78125    101.330887
    4192           0     -1847.640625   -996.239746  -24904.87890     97.184074
    4193           0     -1847.640625   -996.239746  -25260.97656     92.174210
    4194           0     -1847.640625   -996.239746  -25617.07421     86.286255
    4195           0     -1847.640625   -996.239746  -25973.17187     79.338234
    4196           0     -1847.640625   -996.239746  -26329.26953     71.291847
    4197           0     -1847.640625   -996.239746  -26685.36914     62.309090
    4198           0     -1847.640625   -996.239746  -27041.46484     52.914326
    4199           0     -1847.640625   -996.239746  -27397.56250     46.089531
    4200           0     -1847.640625   -996.239746  -27753.66015     46.859825
    4201           0     -1847.640625   -996.239746  -28109.75781     64.621162
    4202           0     -1847.640625   -996.239746  -28465.85351     86.459053
    4203           0     -1847.640625   -996.239746  -28821.95312     93.118103
    4204           0     -1786.588501  -1101.985107  -14578.05078    182.786758
    4205           0     -1786.588501  -1101.985107  -14934.14843    178.332245
    4206           0     -1786.588501  -1101.985107  -15290.24609    160.932739
    4207           0     -1786.588501  -1101.985107  -15646.34277    136.519272
    4208           0     -1786.588501  -1101.985107  -16002.44140    116.781456
    4209           0     -1786.588501  -1101.985107  -16358.53808    101.452942
    4210           0     -1786.588501  -1101.985107  -16714.63671     91.220970
    4211           0     -1786.588501  -1101.985107  -17070.73437     85.066063
    4212           0     -1786.588501  -1101.985107  -17426.83203     82.066681
    4213           0     -1786.588501  -1101.985107  -17782.92968     81.603996
    4214           0     -1786.588501  -1101.985107  -18139.02539     82.603302
    4215           0     -1786.588501  -1101.985107  -18495.12304     84.636154
    4216           0     -1786.588501  -1101.985107  -18851.22070     87.088249
    4217           0     -1786.588501  -1101.985107  -19207.31835     89.703392
    4218           0     -1786.588501  -1101.985107  -19563.41796     92.244011
    4219           0     -1786.588501  -1101.985107  -19919.51562     94.544373
    4220           0     -1786.588501  -1101.985107  -20275.61132     96.562477
    4221           0     -1786.588501  -1101.985107  -20631.70898     98.163765
    4222           0     -1786.588501  -1101.985107  -20987.80664     99.394806
    4223           0     -1786.588501  -1101.985107  -21343.90429    100.123993
    4224           0     -1786.588501  -1101.985107  -21700.00195    100.434898
    4225           0     -1786.588501  -1101.985107  -22056.09765    100.186111
    4226           0     -1786.588501  -1101.985107  -22412.19726     99.474136
    4227           0     -1786.588501  -1101.985107  -22768.29296     98.141182
    4228           0     -1786.588501  -1101.985107  -23124.39062     96.285645
    4229           0     -1786.588501  -1101.985107  -23480.48828     93.729042
    4230           0     -1786.588501  -1101.985107  -23836.58789     90.567352
    4231           0     -1786.588501  -1101.985107  -24192.68554     86.598808
    4232           0     -1786.588501  -1101.985107  -24548.78125     81.918076
    4233           0     -1786.588501  -1101.985107  -24904.87890     76.305595
    4234           0     -1786.588501  -1101.985107  -25260.97656     69.868896
    4235           0     -1786.588501  -1101.985107  -25617.07226     62.423317
    4236           0     -1786.588501  -1101.985107  -25973.17187     54.187153
    4237           0     -1786.588501  -1101.985107  -26329.26953     45.364120
    4238           0     -1786.588501  -1101.985107  -26685.36914     37.139755
    4239           0     -1786.588501  -1101.985107  -27041.46484     32.438858
    4240           0     -1786.588501  -1101.985107  -27397.56250     36.137085
    4241           0     -1786.588501  -1101.985107  -27753.66015     48.971825
    4242           0     -1786.588501  -1101.985107  -28109.75781     66.990921
    4243           0     -1786.588501  -1101.985107  -28465.85351     79.265549
    4244           0     -1786.588501  -1101.985107  -28821.95117     82.150040
    4245           0     -1719.491211  -1204.001587  -14578.05078    173.086533
    4246           0     -1719.491211  -1204.001587  -14934.14843    170.110748
    4247           0     -1719.491211  -1204.001587  -15290.24609    157.857834
    4248           0     -1719.491211  -1204.001587  -15646.34277    140.099960
    4249           0     -1719.491211  -1204.001587  -16002.44140    122.090279
    4250           0     -1719.491211  -1204.001587  -16358.53808    104.590439
    4251           0     -1719.491211  -1204.001587  -16714.63671     90.240700
    4252           0     -1719.491211  -1204.001587  -17070.73437     78.930977
    4253           0     -1719.491211  -1204.001587  -17426.83007     70.627113
    4254           0     -1719.491211  -1204.001587  -17782.92773     65.469109
    4255           0     -1719.491211  -1204.001587  -18139.02539     62.867718
    4256           0     -1719.491211  -1204.001587  -18495.12304     62.445621
    4257           0     -1719.491211  -1204.001587  -18851.22070     63.473698
    4258           0     -1719.491211  -1204.001587  -19207.31835     65.420326
    4259           0     -1719.491211  -1204.001587  -19563.41796     67.787514
    4260           0     -1719.491211  -1204.001587  -19919.51367     70.253304
    4261           0     -1719.491211  -1204.001587  -20275.61132     72.558899
    4262           0     -1719.491211  -1204.001587  -20631.70898     74.570381
    4263           0     -1719.491211  -1204.001587  -20987.80664     76.145149
    4264           0     -1719.491211  -1204.001587  -21343.90234     77.247360
    4265           0     -1719.491211  -1204.001587  -21700.00000     77.778549
    4266           0     -1719.491211  -1204.001587  -22056.09765     77.742218
    4267           0     -1719.491211  -1204.001587  -22412.19726     77.057571
    4268           0     -1719.491211  -1204.001587  -22768.29492     75.733147
    4269           0     -1719.491211  -1204.001587  -23124.39062     73.702652
    4270           0     -1719.491211  -1204.001587  -23480.48828     70.956482
    4271           0     -1719.491211  -1204.001587  -23836.58789     67.454025
    4272           0     -1719.491211  -1204.001587  -24192.68554     63.149769
    4273           0     -1719.491211  -1204.001587  -24548.78125     58.056004
    4274           0     -1719.491211  -1204.001587  -24904.87890     52.089165
    4275           0     -1719.491211  -1204.001587  -25260.97460     45.383343
    4276           0     -1719.491211  -1204.001587  -25617.07226     37.925114
    4277           0     -1719.491211  -1204.001587  -25973.17187     30.292093
    4278           0     -1719.491211  -1204.001587  -26329.26953     23.604162
    4279           0     -1719.491211  -1204.001587  -26685.36914     21.112997
    4280           0     -1719.491211  -1204.001587  -27041.46484     26.169512
    4281           0     -1719.491211  -1204.001587  -27397.56250     36.960430
    4282           0     -1719.491211  -1204.001587  -27753.66015     49.774624
    4283           0     -1719.491211  -1204.001587  -28109.75781     61.304604
    4284           0     -1719.491211  -1204.001587  -28465.85351     68.343063
    4285           0     -1719.491211  -1204.001587  -28821.94921     69.251320
    4286           0     -1646.575562  -1301.944092  -14578.05078    160.811707
    4287           0     -1646.575562  -1301.944092  -14934.14843    158.802155
    4288           0     -1646.575562  -1301.944092  -15290.24609    148.825684
    4289           0     -1646.575562  -1301.944092  -15646.34277    136.342682
    4290           0     -1646.575562  -1301.944092  -16002.44140    122.767220
    4291           0     -1646.575562  -1301.944092  -16358.53808    107.394783
    4292           0     -1646.575562  -1301.944092  -16714.63671     92.928726
    4293           0     -1646.575562  -1301.944092  -17070.73437     79.937675
    4294           0     -1646.575562  -1301.944092  -17426.83203     68.551826
    4295           0     -1646.575562  -1301.944092  -17782.92968     59.298763
    4296           0     -1646.575562  -1301.944092  -18139.02539     52.109798
    4297           0     -1646.575562  -1301.944092  -18495.12304     47.264530
    4298           0     -1646.575562  -1301.944092  -18851.22070     44.541348
    4299           0     -1646.575562  -1301.944092  -19207.31835     43.705944
    4300           0     -1646.575562  -1301.944092  -19563.41796     44.219204
    4301           0     -1646.575562  -1301.944092  -19919.51562     45.571247
    4302           0     -1646.575562  -1301.944092  -20275.61132     47.301514
    4303           0     -1646.575562  -1301.944092  -20631.70898     49.059528
    4304           0     -1646.575562  -1301.944092  -20987.80664     50.617165
    4305           0     -1646.575562  -1301.944092  -21343.90234     51.794983
    4306           0     -1646.575562  -1301.944092  -21700.00000     52.499420
    4307           0     -1646.575562  -1301.944092  -22056.09765     52.636269
    4308           0     -1646.575562  -1301.944092  -22412.19726     52.167953
    4309           0     -1646.575562  -1301.944092  -22768.29296     51.037987
    4310           0     -1646.575562  -1301.944092  -23124.39062     49.229401
    4311           0     -1646.575562  -1301.944092  -23480.48828     46.704269
    4312           0     -1646.575562  -1301.944092  -23836.58789     43.456776
    4313           0     -1646.575562  -1301.944092  -24192.68359     39.462860
    4314           0     -1646.575562  -1301.944092  -24548.78125     34.744019
    4315           0     -1646.575562  -1301.944092  -24904.87890     29.311884
    4316           0     -1646.575562  -1301.944092  -25260.97656     23.317039
    4317           0     -1646.575562  -1301.944092  -25617.07421     17.080378
    4318           0     -1646.575562  -1301.944092  -25973.17187     11.979368
    4319           0     -1646.575562  -1301.944092  -26329.26953     11.827650
    4320           0     -1646.575562  -1301.944092  -26685.36914     17.837778
    4321           0     -1646.575562  -1301.944092  -27041.46484     26.770052
    4322           0     -1646.575562  -1301.944092  -27397.56250     36.520721
    4323           0     -1646.575562  -1301.944092  -27753.66015     45.210793
    4324           0     -1646.575562  -1301.944092  -28109.75781     51.837837
    4325           0     -1646.575562  -1301.944092  -28465.85351     56.200253
    4326           0     -1646.575562  -1301.944092  -28821.95312     56.449333
    4327           0     -1568.088623  -1395.481323  -14578.05078    147.130264
    4328           0     -1568.088623  -1395.481323  -14934.14843    145.943848
    4329           0     -1568.088623  -1395.481323  -15290.24609    137.158066
    4330           0     -1568.088623  -1395.481323  -15646.34277    127.856468
    4331           0     -1568.088623  -1395.481323  -16002.44140    118.165787
    4332           0     -1568.088623  -1395.481323  -16358.53808    106.397583
    4333           0     -1568.088623  -1395.481323  -16714.63671     94.179512
    4334           0     -1568.088623  -1395.481323  -17070.73437     82.292641
    4335           0     -1568.088623  -1395.481323  -17426.83203     71.021889
    4336           0     -1568.088623  -1395.481323  -17782.92968     60.774830
    4337           0     -1568.088623  -1395.481323  -18139.02539     51.591717
    4338           0     -1568.088623  -1395.481323  -18495.12304     43.736156
    4339           0     -1568.088623  -1395.481323  -18851.22070     37.296146
    4340           0     -1568.088623  -1395.481323  -19207.31835     32.468472
    4341           0     -1568.088623  -1395.481323  -19563.41796     29.302399
    4342           0     -1568.088623  -1395.481323  -19919.51562     27.719524
    4343           0     -1568.088623  -1395.481323  -20275.61132     27.400206
    4344           0     -1568.088623  -1395.481323  -20631.70898     27.906204
    4345           0     -1568.088623  -1395.481323  -20987.80664     28.797396
    4346           0     -1568.088623  -1395.481323  -21343.90429     29.730555
    4347           0     -1568.088623  -1395.481323  -21700.00195     30.463884
    4348           0     -1568.088623  -1395.481323  -22056.09765     30.837515
    4349           0     -1568.088623  -1395.481323  -22412.19726     30.753204
    4350           0     -1568.088623  -1395.481323  -22768.29296     30.142338
    4351           0     -1568.088623  -1395.481323  -23124.39062     28.977093
    4352           0     -1568.088623  -1395.481323  -23480.48828     27.227940
    4353           0     -1568.088623  -1395.481323  -23836.58789     24.914875
    4354           0     -1568.088623  -1395.481323  -24192.68554     22.037653
    4355           0     -1568.088623  -1395.481323  -24548.78125     18.695896
    4356           0     -1568.088623  -1395.481323  -24904.87890     14.997507
    4357           0     -1568.088623  -1395.481323  -25260.97656     11.412650
    4358           0     -1568.088623  -1395.481323  -25617.07226      9.032740
    4359           0     -1568.088623  -1395.481323  -25973.17187      9.910103
    4360           0     -1568.088623  -1395.481323  -26329.26953     14.078259
    4361           0     -1568.088623  -1395.481323  -26685.36914     19.787525
    4362           0     -1568.088623  -1395.481323  -27041.46484     26.304855
    4363           0     -1568.088623  -1395.481323  -27397.56250     32.585785
    4364           0     -1568.088623  -1395.481323  -27753.66015     37.725361
    4365           0     -1568.088623  -1395.481323  -28109.75781     41.298271
    4366           0     -1568.088623  -1395.481323  -28465.85351     44.506516
    4367           0     -1568.088623  -1395.481323  -28821.95117     44.532028
    4368           0     -1484.295532  -1484.296631  -14578.05078    133.063507
    4369           0     -1484.295532  -1484.296631  -14934.14843    132.687988
    4370           0     -1484.295532  -1484.296631  -15290.24609    124.815857
    4371           0     -1484.295532  -1484.296631  -15646.34277    117.408485
    4372           0     -1484.295532  -1484.296631  -16002.44140    110.229630
    4373           0     -1484.295532  -1484.296631  -16358.53808    101.775932
    4374           0     -1484.295532  -1484.296631  -16714.63671     92.430573
    4375           0     -1484.295532  -1484.296631  -17070.73437     82.854622
    4376           0     -1484.295532  -1484.296631  -17426.83007     73.361290
    4377           0     -1484.295532  -1484.296631  -17782.92773     64.367287
    4378           0     -1484.295532  -1484.296631  -18139.02539     55.940601
    4379           0     -1484.295532  -1484.296631  -18495.12304     48.283401
    4380           0     -1484.295532  -1484.296631  -18851.22070     41.462845
    4381           0     -1484.295532  -1484.296631  -19207.31835     35.604317
    4382           0     -1484.295532  -1484.296631  -19563.41796     30.799894
    4383           0     -1484.295532  -1484.296631  -19919.51367     27.135683
    4384           0     -1484.295532  -1484.296631  -20275.61132     24.636007
    4385           0     -1484.295532  -1484.296631  -20631.70898     23.217489
    4386           0     -1484.295532  -1484.296631  -20987.80664     22.671173
    4387           0     -1484.295532  -1484.296631  -21343.90234     22.714289
    4388           0     -1484.295532  -1484.296631  -21700.00000     23.055637
    4389           0     -1484.295532  -1484.296631  -22056.09765     23.466581
    4390           0     -1484.295532  -1484.296631  -22412.19726     23.772604
    4391           0     -1484.295532  -1484.296631  -22768.29492     23.874216
    4392           0     -1484.295532  -1484.296631  -23124.39062     23.703102
    4393           0     -1484.295532  -1484.296631  -23480.48828     23.243876
    4394           0     -1484.295532  -1484.296631  -23836.58789     22.497463
    4395           0     -1484.295532  -1484.296631  -24192.68554     21.506527
    4396           0     -1484.295532  -1484.296631  -24548.78125     20.343447
    4397           0     -1484.295532  -1484.296631  -24904.87890     19.124756
    4398           0     -1484.295532  -1484.296631  -25260.97460     18.042976
    4399           0     -1484.295532  -1484.296631  -25617.07226     17.354578
    4400           0     -1484.295532  -1484.296631  -25973.17187     17.378830
    4401           0     -1484.295532  -1484.296631  -26329.26953     18.451389
    4402           0     -1484.295532  -1484.296631  -26685.36914     20.570967
    4403           0     -1484.295532  -1484.296631  -27041.46484     23.661808
    4404           0     -1484.295532  -1484.296631  -27397.56250     26.752554
    4405           0     -1484.295532  -1484.296631  -27753.66015     29.404589
    4406           0     -1484.295532  -1484.296631  -28109.75781     31.384525
    4407           0     -1484.295532  -1484.296631  -28465.85351     34.039165
    4408           0     -1484.295532  -1484.296631  -28821.94921     34.060726
    4409           0     -1395.480103  -1568.089600  -14578.05078    119.564079
    4410           0     -1395.480103  -1568.089600  -14934.14843    119.919495
    4411           0     -1395.480103  -1568.089600  -15290.24609    112.987633
    4412           0     -1395.480103  -1568.089600  -15646.34277    106.870804
    4413           0     -1395.480103  -1568.089600  -16002.44140    101.159485
    4414           0     -1395.480103  -1568.089600  -16358.53808     95.074608
    4415           0     -1395.480103  -1568.089600  -16714.63671     88.292259
    4416           0     -1395.480103  -1568.089600  -17070.73437     81.148415
    4417           0     -1395.480103  -1568.089600  -17426.83203     73.852165
    4418           0     -1395.480103  -1568.089600  -17782.92968     66.829750
    4419           0     -1395.480103  -1568.089600  -18139.02539     60.206486
    4420           0     -1395.480103  -1568.089600  -18495.12304     54.168930
    4421           0     -1395.480103  -1568.089600  -18851.22070     48.807266
    4422           0     -1395.480103  -1568.089600  -19207.31835     44.205956
    4423           0     -1395.480103  -1568.089600  -19563.41796     40.419720
    4424           0     -1395.480103  -1568.089600  -19919.51562     37.463776
    4425           0     -1395.480103  -1568.089600  -20275.61132     35.315617
    4426           0     -1395.480103  -1568.089600  -20631.70898     33.895458
    4427           0     -1395.480103  -1568.089600  -20987.80664     33.082500
    4428           0     -1395.480103  -1568.089600  -21343.90234     32.724110
    4429           0     -1395.480103  -1568.089600  -21700.00000     32.662006
    4430           0     -1395.480103  -1568.089600  -22056.09765     32.748146
    4431           0     -1395.480103  -1568.089600  -22412.19726     32.855522
    4432           0     -1395.480103  -1568.089600  -22768.29296     32.881748
    4433           0     -1395.480103  -1568.089600  -23124.39062     32.745693
    4434           0     -1395.480103  -1568.089600  -23480.48828     32.386768
    4435           0     -1395.480103  -1568.089600  -23836.58789     31.758156
    4436           0     -1395.480103  -1568.089600  -24192.68359     30.828873
    4437           0     -1395.480103  -1568.089600  -24548.78125     29.581459
    4438           0     -1395.480103  -1568.089600  -24904.87890     28.020353
    4439           0     -1395.480103  -1568.089600  -25260.97656     26.186317
    4440           0     -1395.480103  -1568.089600  -25617.07421     24.187094
    4441           0     -1395.480103  -1568.089600  -25973.17187     22.226871
    4442           0     -1395.480103  -1568.089600  -26329.26953     20.694557
    4443           0     -1395.480103  -1568.089600  -26685.36914     19.912653
    4444           0     -1395.480103  -1568.089600  -27041.46484     20.150770
    4445           0     -1395.480103  -1568.089600  -27397.56250     20.795628
    4446           0     -1395.480103  -1568.089600  -27753.66015     21.852676
    4447           0     -1395.480103  -1568.089600  -28109.75781     23.017834
    4448           0     -1395.480103  -1568.089600  -28465.85351     25.180895
    4449           0     -1395.480103  -1568.089600  -28821.95312     25.248119
    4450           0     -1301.942871  -1646.576660  -14578.05078    107.381248
    4451           0     -1301.942871  -1646.576660  -14934.14843    108.389595
    4452           0     -1301.942871  -1646.576660  -15290.24609    102.388855
    4453           0     -1301.942871  -1646.576660  -15646.34277     97.353859
    4454           0     -1301.942871  -1646.576660  -16002.44140     92.547310
    4455           0     -1301.942871  -1646.576660  -16358.53808     87.954231
    4456           0     -1301.942871  -1646.576660  -16714.63671     83.047318
    4457           0     -1301.942871  -1646.576660  -17070.73437     77.952507
    4458           0     -1301.942871  -1646.576660  -17426.83203     72.645905
    4459           0     -1301.942871  -1646.576660  -17782.92968     67.508682
    4460           0     -1301.942871  -1646.576660  -18139.02539     62.683434
    4461           0     -1301.942871  -1646.576660  -18495.12304     58.352131
    4462           0     -1301.942871  -1646.576660  -18851.22070     54.596783
    4463           0     -1301.942871  -1646.576660  -19207.31835     51.467869
    4464           0     -1301.942871  -1646.576660  -19563.41796     48.973961
    4465           0     -1301.942871  -1646.576660  -19919.51562     47.081184
    4466           0     -1301.942871  -1646.576660  -20275.61132     45.729046
    4467           0     -1301.942871  -1646.576660  -20631.70898     44.826424
    4468           0     -1301.942871  -1646.576660  -20987.80664     44.270088
    4469           0     -1301.942871  -1646.576660  -21343.90429     43.947624
    4470           0     -1301.942871  -1646.576660  -21700.00195     43.749798
    4471           0     -1301.942871  -1646.576660  -22056.09765     43.572960
    4472           0     -1301.942871  -1646.576660  -22412.19726     43.323509
    4473           0     -1301.942871  -1646.576660  -22768.29296     42.917572
    4474           0     -1301.942871  -1646.576660  -23124.39062     42.281380
    4475           0     -1301.942871  -1646.576660  -23480.48828     41.350529
    4476           0     -1301.942871  -1646.576660  -23836.58789     40.070370
    4477           0     -1301.942871  -1646.576660  -24192.68554     38.397320
    4478           0     -1301.942871  -1646.576660  -24548.78125     36.303741
    4479           0     -1301.942871  -1646.576660  -24904.87890     33.785889
    4480           0     -1301.942871  -1646.576660  -25260.97656     30.880249
    4481           0     -1301.942871  -1646.576660  -25617.07226     27.690990
    4482           0     -1301.942871  -1646.576660  -25973.17187     24.409225
    4483           0     -1301.942871  -1646.576660  -26329.26953     21.367992
    4484           0     -1301.942871  -1646.576660  -26685.36914     18.866280
    4485           0     -1301.942871  -1646.576660  -27041.46484     17.221121
    4486           0     -1301.942871  -1646.576660  -27397.56250     16.241005
    4487           0     -1301.942871  -1646.576660  -27753.66015     16.205015
    4488           0     -1301.942871  -1646.576660  -28109.75781     16.659208
    4489           0     -1301.942871  -1646.576660  -28465.85351     18.102276
    4490           0     -1301.942871  -1646.576660  -28821.95117     18.100275
    4491           0     -1204.000244  -1719.492188  -14578.05078     97.080063
    4492           0     -1204.000244  -1719.492188  -14934.14843     98.635284
    4493           0     -1204.000244  -1719.492188  -15290.24609     93.499435
    4494           0     -1204.000244  -1719.492188  -15646.34277     89.419884
    4495           0     -1204.000244  -1719.492188  -16002.44140     85.312439
    4496           0     -1204.000244  -1719.492188  -16358.53808     81.633507
    4497           0     -1204.000244  -1719.492188  -16714.63671     77.929680
    4498           0     -1204.000244  -1719.492188  -17070.73437     74.310448
    4499           0     -1204.000244  -1719.492188  -17426.83007     70.557068
    4500           0     -1204.000244  -1719.492188  -17782.92773     66.918175
    4501           0     -1204.000244  -1719.492188  -18139.02539     63.508980
    4502           0     -1204.000244  -1719.492188  -18495.12304     60.494484
    4503           0     -1204.000244  -1719.492188  -18851.22070     57.950455
    4504           0     -1204.000244  -1719.492188  -19207.31835     55.906952
    4505           0     -1204.000244  -1719.492188  -19563.41796     54.349281
    4506           0     -1204.000244  -1719.492188  -19919.51367     53.220257
    4507           0     -1204.000244  -1719.492188  -20275.61132     52.444324
    4508           0     -1204.000244  -1719.492188  -20631.70898     51.926640
    4509           0     -1204.000244  -1719.492188  -20987.80664     51.571396
    4510           0     -1204.000244  -1719.492188  -21343.90234     51.281231
    4511           0     -1204.000244  -1719.492188  -21700.00000     50.966030
    4512           0     -1204.000244  -1719.492188  -22056.09765     50.541153
    4513           0     -1204.000244  -1719.492188  -22412.19726     49.930824
    4514           0     -1204.000244  -1719.492188  -22768.29492     49.065952
    4515           0     -1204.000244  -1719.492188  -23124.39062     47.886539
    4516           0     -1204.000244  -1719.492188  -23480.48828     46.340450
    4517           0     -1204.000244  -1719.492188  -23836.58789     44.388054
    4518           0     -1204.000244  -1719.492188  -24192.68554     42.002842
    4519           0     -1204.000244  -1719.492188  -24548.78125     39.181778
    4520           0     -1204.000244  -1719.492188  -24904.87890     35.949535
    4521           0     -1204.000244  -1719.492188  -25260.97460     32.377499
    4522           0     -1204.000244  -1719.492188  -25617.07226     28.593069
    4523           0     -1204.000244  -1719.492188  -25973.17187     24.788528
    4524           0     -1204.000244  -1719.492188  -26329.26953     21.220236
    4525           0     -1204.000244  -1719.492188  -26685.36914     18.099571
    4526           0     -1204.000122  -1719.492188  -27041.46484     15.654544
    4527           0     -1204.000122  -1719.492188  -27397.56250     13.859073
    4528           0     -1204.000122  -1719.492188  -27753.66015     12.921136
    4529           0     -1204.000122  -1719.492188  -28109.75781     12.460357
    4530           0     -1204.000122  -1719.492188  -28465.85351     12.870000
    4531           0     -1204.000244  -1719.492188  -28821.94921     12.575151
    4532           0     -1101.983643  -1786.589478  -14578.05078     88.995262
    4533           0     -1101.983643  -1786.589478  -14934.14843     90.985718
    4534           0     -1101.983643  -1786.589478  -15290.24609     86.598045
    4535           0     -1101.983643  -1786.589478  -15646.34277     83.322609
    4536           0     -1101.983643  -1786.589478  -16002.44140     79.837494
    4537           0     -1101.983643  -1786.589478  -16358.53808     76.779442
    4538           0     -1101.983643  -1786.589478  -16714.63671     73.796623
    4539           0     -1101.983643  -1786.589478  -17070.73437     71.101219
    4540           0     -1101.983643  -1786.589478  -17426.83203     68.410477
    4541           0     -1101.983643  -1786.589478  -17782.92968     65.831299
    4542           0     -1101.983643  -1786.589478  -18139.02539     63.399315
    4543           0     -1101.983643  -1786.589478  -18495.12304     61.241867
    4544           0     -1101.983643  -1786.589478  -18851.22070     59.425690
    4545           0     -1101.983643  -1786.589478  -19207.31835     57.982029
    4546           0     -1101.983643  -1786.589478  -19563.41796     56.896519
    4547           0     -1101.983643  -1786.589478  -19919.51562     56.116055
    4548           0     -1101.983643  -1786.589478  -20275.61132     55.566048
    4549           0     -1101.983643  -1786.589478  -20631.70898     55.157185
    4550           0     -1101.983643  -1786.589478  -20987.80664     54.798145
    4551           0     -1101.983643  -1786.589478  -21343.90234     54.400002
    4552           0     -1101.983643  -1786.589478  -21700.00000     53.880848
    4553           0     -1101.983643  -1786.589478  -22056.09765     53.167370
    4554           0     -1101.983643  -1786.589478  -22412.19726     52.195534
    4555           0     -1101.983643  -1786.589478  -22768.29296     50.911068
    4556           0     -1101.983643  -1786.589478  -23124.39062     49.270470
    4557           0     -1101.983643  -1786.589478  -23480.48828     47.241806
    4558           0     -1101.983643  -1786.589478  -23836.58789     44.809124
    4559           0     -1101.983643  -1786.589478  -24192.68359     41.974064
    4560           0     -1101.983643  -1786.589478  -24548.78125     38.766018
    4561           0     -1101.983643  -1786.589478  -24904.87890     35.242912
    4562           0     -1101.983643  -1786.589478  -25260.97656     31.506414
    4563           0     -1101.983643  -1786.589478  -25617.07421     27.694170
    4564           0     -1101.983643  -1786.589478  -25973.17187     23.981421
    4565           0     -1101.983643  -1786.589478  -26329.26953     20.552647
    4566           0     -1101.983643  -1786.589478  -26685.36914     17.544943
    4567           0     -1101.983643  -1786.589478  -27041.46484     15.066399
    4568           0     -1101.983643  -1786.589478  -27397.56250     13.032999
    4569           0     -1101.983643  -1786.589478  -27753.66015     11.476620
    4570           0     -1101.983643  -1786.589478  -28109.75781     10.177295
    4571           0     -1101.983643  -1786.589478  -28465.85351      9.508286
    4572           0     -1101.983643  -1786.589478  -28821.95312      8.739524
    4573           0      -996.238403  -1847.641357  -14578.05078     83.235703
    4574           0      -996.238403  -1847.641357  -14934.14843     85.557549
    4575           0      -996.238403  -1847.641357  -15290.24609     81.773666
    4576           0      -996.238403  -1847.641357  -15646.34277     79.114845
    4577           0      -996.238403  -1847.641357  -16002.44140     76.177109
    4578           0      -996.238403  -1847.641357  -16358.53808     73.588127
    4579           0      -996.238403  -1847.641357  -16714.63671     71.055336
    4580           0      -996.238403  -1847.641357  -17070.73437     68.868279
    4581           0      -996.238403  -1847.641357  -17426.83203     66.801743
    4582           0      -996.238403  -1847.641357  -17782.92968     64.879700
    4583           0      -996.238403  -1847.641357  -18139.02539     63.054001
    4584           0      -996.238403  -1847.641357  -18495.12304     61.384430
    4585           0      -996.238403  -1847.641357  -18851.22070     59.914452
    4586           0      -996.238403  -1847.641357  -19207.31835     58.675522
    4587           0      -996.238403  -1847.641357  -19563.41796     57.667889
    4588           0      -996.238403  -1847.641357  -19919.51562     56.858677
    4589           0      -996.238403  -1847.641357  -20275.61132     56.192467
    4590           0      -996.238403  -1847.641357  -20631.70898     55.596577
    4591           0      -996.238403  -1847.641357  -20987.80664     54.992725
    4592           0      -996.238403  -1847.641357  -21343.90429     54.302547
    4593           0      -996.238403  -1847.641357  -21700.00195     53.453869
    4594           0      -996.238403  -1847.641357  -22056.09765     52.383415
    4595           0      -996.238403  -1847.641357  -22412.19726     51.039356
    4596           0      -996.238403  -1847.641357  -22768.29296     49.382046
    4597           0      -996.238403  -1847.641357  -23124.39062     47.386028
    4598           0      -996.238403  -1847.641357  -23480.48828     45.040272
    4599           0      -996.238403  -1847.641357  -23836.58789     42.352531
    4600           0      -996.238403  -1847.641357  -24192.68554     39.349014
    4601           0      -996.238403  -1847.641357  -24548.78125     36.083145
    4602           0      -996.238403  -1847.641357  -24904.87890     32.630573
    4603           0      -996.238403  -1847.641357  -25260.97656     29.100698
    4604           0      -996.238403  -1847.641357  -25617.07226     25.617115
    4605           0      -996.238403  -1847.641357  -25973.17187     22.321590
    4606           0      -996.238403  -1847.641357  -26329.26953     19.334654
    4607           0      -996.238403  -1847.641357  -26685.36914     16.723846
    4608           0      -996.238403  -1847.641357  -27041.46484     14.488422
    4609           0      -996.238403  -1847.641357  -27397.56250     12.493965
    4610           0      -996.238403  -1847.641357  -27753.66015     10.730374
    4611           0      -996.238403  -1847.641357  -28109.75781      9.081966
    4612           0      -996.238403  -1847.641357  -28465.85351      7.842291
    4613           0      -996.238403  -1847.641357  -28821.95117      6.799922
    4614           0      -887.122070  -1902.441650  -14578.05078     79.697632
    4615           0      -887.122070  -1902.441650  -14934.14843     82.248611
    4616           0      -887.122070  -1902.441650  -15290.24609     78.925819
    4617           0      -887.122070  -1902.441650  -15646.34277     76.683006
    4618           0      -887.122070  -1902.441650  -16002.44140     74.188828
    4619           0      -887.122070  -1902.441650  -16358.53808     71.952950
    4620           0      -887.122070  -1902.441650  -16714.63671     69.730492
    4621           0      -887.122070  -1902.441650  -17070.73437     67.802124
    4622           0      -887.122070  -1902.441650  -17426.83007     66.038780
    4623           0      -887.122070  -1902.441650  -17782.92773     64.452309
    4624           0      -887.122070  -1902.441650  -18139.02539     62.952995
    4625           0      -887.122070  -1902.441650  -18495.12304     61.531075
    4626           0      -887.122070  -1902.441650  -18851.22070     60.187244
    4627           0      -887.122070  -1902.441650  -19207.31835     58.936554
    4628           0      -887.122070  -1902.441650  -19563.41796     57.785030
    4629           0      -887.122070  -1902.441650  -19919.51367     56.721115
    4630           0      -887.122070  -1902.441650  -20275.61132     55.715488
    4631           0      -887.122070  -1902.441650  -20631.70898     54.723053
    4632           0      -887.122070  -1902.441650  -20987.80664     53.689312
    4633           0      -887.122070  -1902.441650  -21343.90234     52.556637
    4634           0      -887.122070  -1902.441650  -21700.00000     51.269730
    4635           0      -887.122070  -1902.441650  -22056.09765     49.780731
    4636           0      -887.122070  -1902.441650  -22412.19726     48.052139
    4637           0      -887.122070  -1902.441650  -22768.29492     46.059586
    4638           0      -887.122070  -1902.441650  -23124.39062     43.793213
    4639           0      -887.122070  -1902.441650  -23480.48828     41.258636
    4640           0      -887.122070  -1902.441650  -23836.58789     38.478848
    4641           0      -887.122070  -1902.441650  -24192.68554     35.493099
    4642           0      -887.122070  -1902.441650  -24548.78125     32.361279
    4643           0      -887.122070  -1902.441650  -24904.87890     29.157494
    4644           0      -887.122070  -1902.441650  -25260.97460     25.977264
    4645           0      -887.122070  -1902.441650  -25617.07226     22.918329
    4646           0      -887.122070  -1902.441650  -25973.17187     20.084852
    4647           0      -887.122070  -1902.441650  -26329.26953     17.545538
    4648           0      -887.122070  -1902.441650  -26685.36914     15.309807
    4649           0      -887.122070  -1902.441650  -27041.46484     13.330339
    4650           0      -887.122070  -1902.441650  -27397.56250     11.496192
    4651           0      -887.122070  -1902.441650  -27753.66015      9.851984
    4652           0      -887.122070  -1902.441650  -28109.75781      8.350406
    4653           0      -887.122070  -1902.441650  -28465.85351      7.258420
    4654           0      -887.122070  -1902.441650  -28821.94921      6.546369
    4655           0      -775.004028  -1950.804565  -14578.05078     78.090576
    4656           0      -775.004028  -1950.804565  -14934.14843     80.779968
    4657           0      -775.004028  -1950.804565  -15290.24609     77.786064
    4658           0      -775.004028  -1950.804565  -15646.34277     75.773392
    4659           0      -775.004028  -1950.804565  -16002.44140     73.605423
    4660           0      -775.004028  -1950.804565  -16358.53808     71.606277
    4661           0      -775.004028  -1950.804565  -16714.63671     69.607697
    4662           0      -775.004028  -1950.804565  -17070.73437     67.810181
    4663           0      -775.004028  -1950.804565  -17426.83203     66.163513
    4664           0      -775.004028  -1950.804565  -17782.92968     64.695648
    4665           0      -775.004028  -1950.804565  -18139.02539     63.329731
    4666           0      -775.004028  -1950.804565  -18495.12304     62.015442
    4667           0      -775.004028  -1950.804565  -18851.22070     60.711452
    4668           0      -775.004028  -1950.804565  -19207.31835     59.400726
    4669           0      -775.004028  -1950.804565  -19563.41796     58.076279
    4670           0      -775.004028  -1950.804565  -19919.51562     56.732330
    4671           0      -775.004028  -1950.804565  -20275.61132     55.357552
    4672           0      -775.004028  -1950.804565  -20631.70898     53.933151
    4673           0      -775.004028  -1950.804565  -20987.80664     52.432907
    4674           0      -775.004028  -1950.804565  -21343.90234     50.826988
    4675           0      -775.004028  -1950.804565  -21700.00000     49.084629
    4676           0      -775.004028  -1950.804565  -22056.09765     47.179062
    4677           0      -775.004028  -1950.804565  -22412.19726     45.089878
    4678           0      -775.004028  -1950.804565  -22768.29296     42.806721
    4679           0      -775.004028  -1950.804565  -23124.39062     40.330284
    4680           0      -775.004028  -1950.804565  -23480.48828     37.674038
    4681           0      -775.004028  -1950.804565  -23836.58789     34.864212
    4682           0      -775.004028  -1950.804565  -24192.68359     31.939400
    4683           0      -775.004028  -1950.804565  -24548.78125     28.951433
    4684           0      -775.004028  -1950.804565  -24904.87890     25.962067
    4685           0      -775.004028  -1950.804565  -25260.97656     23.046740
    4686           0      -775.004028  -1950.804565  -25617.07421     20.281996
    4687           0      -775.004028  -1950.804565  -25973.17187     17.742630
    4688           0      -775.004028  -1950.804565  -26329.26953     15.465504
    4689           0      -775.004028  -1950.804565  -26685.36914     13.433680
    4690           0      -775.004028  -1950.804565  -27041.46484     11.615756
    4691           0      -775.004028  -1950.804565  -27397.56250      9.956390
    4692           0      -775.004028  -1950.804565  -27753.66015      8.578629
    4693           0      -775.004028  -1950.804565  -28109.75781      7.498200
    4694           0      -775.004028  -1950.804565  -28465.85351      6.982318
    4695           0      -775.004028  -1950.804565  -28821.95312      7.013379
    4696           0      -660.263672  -1992.566650  -14578.05078     77.980263
    4697           0      -660.263672  -1992.566650  -14934.14843     80.735085
    4698           0      -660.263672  -1992.566650  -15290.24609     77.953362
    4699           0      -660.263672  -1992.566650  -15646.34277     76.019745
    4700           0      -660.263672  -1992.566650  -16002.44140     74.068176
    4701           0      -660.263672  -1992.566650  -16358.53808     72.196159
    4702           0      -660.263672  -1992.566650  -16714.63671     70.352127
    4703           0      -660.263672  -1992.566650  -17070.73437     68.622887
    4704           0      -660.263672  -1992.566650  -17426.83203     67.011856
    4705           0      -660.263672  -1992.566650  -17782.92968     65.550507
    4706           0      -660.263672  -1992.566650  -18139.02539     64.205742
    4707           0      -660.263672  -1992.566650  -18495.12304     62.922863
    4708           0      -660.263672  -1992.566650  -18851.22070     61.642467
    4709           0      -660.263672  -1992.566650  -19207.31835     60.316547
    4710           0      -660.263672  -1992.566650  -19563.41796     58.915089
    4711           0      -660.263672  -1992.566650  -19919.51562     57.420334
    4712           0      -660.263672  -1992.566650  -20275.61132     55.823189
    4713           0      -660.263672  -1992.566650  -20631.70898     54.117611
    4714           0      -660.263672  -1992.566650  -20987.80664     52.297997
    4715           0      -660.263672  -1992.566650  -21343.90429     50.357841
    4716           0      -660.263672  -1992.566650  -21700.00195     48.289795
    4717           0      -660.263672  -1992.566650  -22056.09765     46.086975
    4718           0      -660.263672  -1992.566650  -22412.19726     43.744358
    4719           0      -660.263672  -1992.566650  -22768.29296     41.261009
    4720           0      -660.263672  -1992.566650  -23124.39062     38.641323
    4721           0      -660.263672  -1992.566650  -23480.48828     35.897194
    4722           0      -660.263672  -1992.566650  -23836.58789     33.048512
    4723           0      -660.263672  -1992.566650  -24192.68554     30.124994
    4724           0      -660.263672  -1992.566650  -24548.78125     27.166664
    4725           0      -660.263672  -1992.566650  -24904.87890     24.224802
    4726           0      -660.263672  -1992.566650  -25260.97656     21.361652
    4727           0      -660.263672  -1992.566650  -25617.07226     18.642424
    4728           0      -660.263672  -1992.566650  -25973.17187     16.122232
    4729           0      -660.263672  -1992.566650  -26329.26953     13.824809
    4730           0      -660.263672  -1992.566650  -26685.36914     11.735519
    4731           0      -660.263672  -1992.566650  -27041.46484      9.866721
    4732           0      -660.263672  -1992.566650  -27397.56250      8.224754
    4733           0      -660.263672  -1992.566650  -27753.66015      7.027872
    4734           0      -660.263672  -1992.566650  -28109.75781      6.393076
    4735           0      -660.263672  -1992.566650  -28465.85351      6.537141
    4736           0      -660.263672  -1992.566650  -28821.95117      7.393468
    4737           0      -543.289124  -2027.586426  -14578.05078     78.839874
    4738           0      -543.289124  -2027.586426  -14934.14843     81.597130
    4739           0      -543.289124  -2027.586426  -15290.24609     78.939796
    4740           0      -543.289124  -2027.586426  -15646.34277     76.976730
    4741           0      -543.289124  -2027.586426  -16002.44140     75.153000
    4742           0      -543.289124  -2027.586426  -16358.53808     73.322388
    4743           0      -543.289124  -2027.586426  -16714.63671     71.574135
    4744           0      -543.289124  -2027.586426  -17070.73437     69.881721
    4745           0      -543.289124  -2027.586426  -17426.83007     68.285202
    4746           0      -543.289124  -2027.586426  -17782.92773     66.799156
    4747           0      -543.289124  -2027.586426  -18139.02539     65.431831
    4748           0      -543.289124  -2027.586426  -18495.12304     64.146927
    4749           0      -543.289124  -2027.586426  -18851.22070     62.893543
    4750           0      -543.289124  -2027.586426  -19207.31835     61.611301
    4751           0      -543.289124  -2027.586426  -19563.41796     60.251736
    4752           0      -543.289124  -2027.586426  -19919.51367     58.779823
    4753           0      -543.289124  -2027.586426  -20275.61132     57.175816
    4754           0      -543.289124  -2027.586426  -20631.70898     55.431309
    4755           0      -543.289124  -2027.586426  -20987.80664     53.545078
    4756           0      -543.289124  -2027.586426  -21343.90234     51.519768
    4757           0      -543.289124  -2027.586426  -21700.00000     49.358715
    4758           0      -543.289124  -2027.586426  -22056.09765     47.065117
    4759           0      -543.289124  -2027.586426  -22412.19726     44.640984
    4760           0      -543.289124  -2027.586426  -22768.29492     42.088612
    4761           0      -543.289124  -2027.586426  -23124.39062     39.410999
    4762           0      -543.289124  -2027.586426  -23480.48828     36.615398
    4763           0      -543.289124  -2027.586426  -23836.58789     33.714474
    4764           0      -543.289124  -2027.586426  -24192.68554     30.731466
    4765           0      -543.289124  -2027.586426  -24548.78125     27.700296
    4766           0      -543.289124  -2027.586426  -24904.87890     24.668827
    4767           0      -543.289124  -2027.586426  -25260.97460     21.692238
    4768           0      -543.289124  -2027.586426  -25617.07226     18.825617
    4769           0      -543.289124  -2027.586426  -25973.17187     16.105129
    4770           0      -543.289124  -2027.586426  -26329.26953     13.544280
    4771           0      -543.289124  -2027.586426  -26685.36914     11.134406
    4772           0      -543.289063  -2027.586426  -27041.46484      8.916124
    4773           0      -543.289063  -2027.586426  -27397.56250      6.946198
    4774           0      -543.289063  -2027.586426  -27753.66015      5.559545
    4775           0      -543.289063  -2027.586426  -28109.75781      5.124660
    4776           0      -543.289063  -2027.586426  -28465.85351      5.794359
    4777           0      -543.289124  -2027.586426  -28821.94921      7.409695
    4778           0      -424.476318  -2055.745605  -14578.05078     80.104492
    4779           0      -424.476318  -2055.745605  -14934.14843     82.824806
    4780           0      -424.476318  -2055.745605  -15290.24609     80.226326
    4781           0      -424.476318  -2055.745605  -15646.34277     78.175659
    4782           0      -424.476318  -2055.745605  -16002.44140     76.416115
    4783           0      -424.476318  -2055.745605  -16358.53808     74.573669
    4784           0      -424.476318  -2055.745605  -16714.63671     72.877632
    4785           0      -424.476318  -2055.745605  -17070.73437     71.205551
    4786           0      -424.476318  -2055.745605  -17426.83203     69.627686
    4787           0      -424.476318  -2055.745605  -17782.92968     68.129173
    4788           0      -424.476318  -2055.745605  -18139.02539     66.742592
    4789           0      -424.476318  -2055.745605  -18495.12304     65.450867
    4790           0      -424.476318  -2055.745605  -18851.22070     64.227142
    4791           0      -424.476318  -2055.745605  -19207.31835     63.019051
    4792           0      -424.476318  -2055.745605  -19563.41796     61.775181
    4793           0      -424.476318  -2055.745605  -19919.51562     60.449036
    4794           0      -424.476318  -2055.745605  -20275.61132     59.006886
    4795           0      -424.476318  -2055.745605  -20631.70898     57.426605
    4796           0      -424.476318  -2055.745605  -20987.80664     55.695866
    4797           0      -424.476318  -2055.745605  -21343.90234     53.808941
    4798           0      -424.476318  -2055.745605  -21700.00000     51.763874
    4799           0      -424.476318  -2055.745605  -22056.09765     49.560658
    4800           0      -424.476318  -2055.745605  -22412.19726     47.199966
    4801           0      -424.476318  -2055.745605  -22768.29296     44.683598
    4802           0      -424.476318  -2055.745605  -23124.39062     42.014973
    4803           0      -424.476318  -2055.745605  -23480.48828     39.201881
    4804           0      -424.476318  -2055.745605  -23836.58789     36.258308
    4805           0      -424.476318  -2055.745605  -24192.68359     33.208652
    4806           0      -424.476318  -2055.745605  -24548.78125     30.087513
    4807           0      -424.476318  -2055.745605  -24904.87890     26.940283
    4808           0      -424.476318  -2055.745605  -25260.97656     23.813707
    4809           0      -424.476318  -2055.745605  -25617.07421     20.747103
    4810           0      -424.476318  -2055.745605  -25973.17187     17.759216
    4811           0      -424.476318  -2055.745605  -26329.26953     14.852582
    4812           0      -424.476318  -2055.745605  -26685.36914     12.022384
    4813           0      -424.476318  -2055.745605  -27041.46484      9.303331
    4814           0      -424.476318  -2055.745605  -27397.56250      6.752874
    4815           0      -424.476318  -2055.745605  -27753.66015      4.711167
    4816           0      -424.476318  -2055.745605  -28109.75781      3.956769
    4817           0      -424.476318  -2055.745605  -28465.85351      4.882400
    4818           0      -424.476318  -2055.745605  -28821.95312      7.128976
    4819           0      -304.227173  -2076.948730  -14578.05078     81.237183
    4820           0      -304.227173  -2076.948730  -14934.14843     83.895149
    4821           0      -304.227173  -2076.948730  -15290.24609     81.321976
    4822           0      -304.227173  -2076.948730  -15646.34277     79.167053
    4823           0      -304.227173  -2076.948730  -16002.44140     77.436562
    4824           0      -304.227173  -2076.948730  -16358.53808     75.560287
    4825           0      -304.227173  -2076.948730  -16714.63671     73.891716
    4826           0      -304.227173  -2076.948730  -17070.73437     72.233498
    4827           0      -304.227173  -2076.948730  -17426.83203     70.684090
    4828           0      -304.227173  -2076.948730  -17782.92968     69.198151
    4829           0      -304.227173  -2076.948730  -18139.02539     67.816246
    4830           0      -304.227173  -2076.948730  -18495.12304     66.530151
    4831           0      -304.227173  -2076.948730  -18851.22070     65.337250
    4832           0      -304.227173  -2076.948730  -19207.31835     64.205261
    4833           0      -304.227173  -2076.948730  -19563.41796     63.094391
    4834           0      -304.227173  -2076.948730  -19919.51562     61.957382
    4835           0      -304.227173  -2076.948730  -20275.61132     60.749218
    4836           0      -304.227173  -2076.948730  -20631.70898     59.429619
    4837           0      -304.227173  -2076.948730  -20987.80664     57.965115
    4838           0      -304.227173  -2076.948730  -21343.90429     56.329712
    4839           0      -304.227173  -2076.948730  -21700.00195     54.504650
    4840           0      -304.227173  -2076.948730  -22056.09765     52.478500
    4841           0      -304.227173  -2076.948730  -22412.19726     50.246555
    4842           0      -304.227173  -2076.948730  -22768.29296     47.811176
    4843           0      -304.227173  -2076.948730  -23124.39062     45.181435
    4844           0      -304.227173  -2076.948730  -23480.48828     42.373665
    4845           0      -304.227173  -2076.948730  -23836.58789     39.411194
    4846           0      -304.227173  -2076.948730  -24192.68554     36.324684
    4847           0      -304.227173  -2076.948730  -24548.78125     33.149677
    4848           0      -304.227173  -2076.948730  -24904.87890     29.923857
    4849           0      -304.227173  -2076.948730  -25260.97656     26.679842
    4850           0      -304.227173  -2076.948730  -25617.07226     23.438761
    4851           0      -304.227173  -2076.948730  -25973.17187     20.209581
    4852           0      -304.227173  -2076.948730  -26329.26953     16.992319
    4853           0      -304.227173  -2076.948730  -26685.36914     13.795224
    4854           0      -304.227173  -2076.948730  -27041.46484     10.646719
    4855           0      -304.227173  -2076.948730  -27397.56250      7.600880
    4856           0      -304.227173  -2076.948730  -27753.66015      4.894379
    4857           0      -304.227173  -2076.948730  -28109.75781      3.417312
    4858           0      -304.227173  -2076.948730  -28465.85351      4.190377
    4859           0      -304.227173  -2076.948730  -28821.95117      6.831638
    4860           0      -182.948608  -2091.124023  -14578.05078     81.776825
    4861           0      -182.948593  -2091.124023  -14934.14843     84.366493
    4862           0      -182.948593  -2091.124023  -15290.24609     81.806664
    4863           0      -182.948593  -2091.124023  -15646.34277     79.570602
    4864           0      -182.948593  -2091.124023  -16002.44140     77.856117
    4865           0      -182.948593  -2091.124023  -16358.53808     75.951950
    4866           0      -182.948578  -2091.124023  -16714.63671     74.303253
    4867           0      -182.948578  -2091.124023  -17070.73437     72.661057
    4868           0      -182.948578  -2091.124023  -17426.83007     71.147751
    4869           0      -182.948578  -2091.124023  -17782.92773     69.694374
    4870           0      -182.948578  -2091.124023  -18139.02539     68.341049
    4871           0      -182.948563  -2091.124023  -18495.12304     67.078270
    4872           0      -182.948563  -2091.124023  -18851.22070     65.920052
    4873           0      -182.948563  -2091.124023  -19207.31835     64.854279
    4874           0      -182.948563  -2091.124023  -19563.41796     63.859013
    4875           0      -182.948563  -2091.124023  -19919.51367     62.893085
    4876           0      -182.948547  -2091.124023  -20275.61132     61.905380
    4877           0      -182.948547  -2091.124023  -20631.70898     60.838898
    4878           0      -182.948532  -2091.124023  -20987.80664     59.638351
    4879           0      -182.948532  -2091.124023  -21343.90234     58.255161
    4880           0      -182.948532  -2091.124023  -21700.00000     56.651852
    4881           0      -182.948532  -2091.124023  -22056.09765     54.804333
    4882           0      -182.948532  -2091.124023  -22412.19726     52.703064
    4883           0      -182.948532  -2091.124023  -22768.29492     50.352722
    4884           0      -182.948532  -2091.124023  -23124.39062     47.770996
    4885           0      -182.948532  -2091.124023  -23480.48828     44.985851
    4886           0      -182.948517  -2091.124023  -23836.58789     42.032150
    4887           0      -182.948517  -2091.124023  -24192.68554     38.946747
    4888           0      -182.948517  -2091.124023  -24548.78125     35.763855
    4889           0      -182.948502  -2091.124023  -24904.87890     32.509678
    4890           0      -182.948502  -2091.124023  -25260.97460     29.201574
    4891           0      -182.948502  -2091.124023  -25617.07226     25.845984
    4892           0      -182.948502  -2091.124023  -25973.17187     22.450480
    4893           0      -182.948486  -2091.124023  -26329.26953     19.020401
    4894           0      -182.948486  -2091.124023  -26685.36914     15.582899
    4895           0      -182.948486  -2091.124023  -27041.46484     12.172458
    4896           0      -182.948486  -2091.124023  -27397.56250      8.866804
    4897           0      -182.948486  -2091.124023  -27753.66015      5.873217
    4898           0      -182.948486  -2091.124023  -28109.75781      3.986432
    4899           0      -182.948471  -2091.124023  -28465.85351      4.301835
    4900           0      -182.948547  -2091.124023  -28821.94921      6.890742
    4901           0       -61.051060  -2098.223633  -14578.05078     81.391350
    4902           0       -61.051056  -2098.223633  -14934.14843     83.914703
    4903           0       -61.051048  -2098.223633  -15290.24609     81.376991
    4904           0       -61.051048  -2098.223633  -15646.34277     79.110054
    4905           0       -61.051048  -2098.223633  -16002.44140     77.414597
    4906           0       -61.051041  -2098.223633  -16358.53808     75.508644
    4907           0       -61.051037  -2098.223633  -16714.63671     73.884140
    4908           0       -61.051037  -2098.223633  -17070.73437     72.267036
    4909           0       -61.051033  -2098.223633  -17426.83203     70.792992
    4910           0       -61.051025  -2098.223633  -17782.92968     69.381134
    4911           0       -61.051025  -2098.223633  -18139.02539     68.068977
    4912           0       -61.051018  -2098.223633  -18495.12304     66.843597
    4913           0       -61.051014  -2098.223633  -18851.22070     65.726257
    4914           0       -61.051014  -2098.223633  -19207.31835     64.717369
    4915           0       -61.051014  -2098.223633  -19563.41796     63.807549
    4916           0       -61.051010  -2098.223633  -19919.51562     62.961750
    4917           0       -61.051006  -2098.223633  -20275.61132     62.126297
    4918           0       -61.051006  -2098.223633  -20631.70898     61.234276
    4919           0       -61.051003  -2098.223633  -20987.80664     60.216221
    4920           0       -61.050995  -2098.223633  -21343.90234     59.008926
    4921           0       -61.050995  -2098.223633  -21700.00000     57.562614
    4922           0       -61.050995  -2098.223633  -22056.09765     55.845257
    4923           0       -61.050987  -2098.223633  -22412.19726     53.844524
    4924           0       -61.050983  -2098.223633  -22768.29296     51.567307
    4925           0       -61.050983  -2098.223633  -23124.39062     49.037495
    4926           0       -61.050980  -2098.223633  -23480.48828     46.291225
    4927           0       -61.050972  -2098.223633  -23836.58789     43.371101
    4928           0       -61.050972  -2098.223633  -24192.68359     40.317989
    4929           0       -61.050972  -2098.223633  -24548.78125     37.164810
    4930           0       -61.050964  -2098.223633  -24904.87890     33.930264
    4931           0       -61.050961  -2098.223633  -25260.97656     30.622787
    4932           0       -61.050961  -2098.223633  -25617.07421     27.242237
    4933           0       -61.050957  -2098.223633  -25973.17187     23.798927
    4934           0       -61.050949  -2098.223633  -26329.26953     20.306019
    4935           0       -61.050949  -2098.223633  -26685.36914     16.807161
    4936           0       -61.050941  -2098.223633  -27041.46484     13.351700
    4937           0       -61.050938  -2098.223633  -27397.56250     10.052870
    4938           0       -61.050938  -2098.223633  -27753.66015      7.150436
    4939           0       -61.050938  -2098.223633  -28109.75781      5.361737
    4940           0       -61.050934  -2098.223633  -28465.85351      5.389054
    4941           0       -61.050995  -2098.223633  -28821.95312      7.554519
    4942           0        61.053070  -2098.223633  -14578.05078     79.906906
    4943           0        61.053070  -2098.223633  -14934.14843     82.372696
    4944           0        61.053070  -2098.223633  -15290.24609     79.874649
    4945           0        61.053070  -2098.223633  -15646.34277     77.642525
    4946           0        61.053070  -2098.223633  -16002.44140     75.977623
    4947           0        61.053070  -2098.223633  -16358.53808     74.106140
    4948           0        61.053070  -2098.223633  -16714.63671     72.516602
    4949           0        61.053070  -2098.223633  -17070.73437     70.936661
    4950           0        61.053070  -2098.223633  -17426.83203     69.501808
    4951           0        61.053070  -2098.223633  -17782.92968     68.131279
    4952           0        61.053074  -2098.223633  -18139.02539     66.862312
    4953           0        61.053078  -2098.223633  -18495.12304     65.681915
    4954           0        61.053078  -2098.223633  -18851.22070     64.611496
    4955           0        61.053078  -2098.223633  -19207.31835     63.651917
    4956           0        61.053078  -2098.223633  -19563.41796     62.794155
    4957           0        61.053078  -2098.223633  -19919.51562     62.003296
    4958           0        61.053078  -2098.223633  -20275.61132     61.225376
    4959           0        61.053078  -2098.223633  -20631.70898     60.392918
    4960           0        61.053078  -2098.223633  -20987.80664     59.435730
    4961           0        61.053078  -2098.223633  -21343.90429     58.289906
    4962           0        61.053078  -2098.223633  -21700.00195     56.905006
    4963           0        61.053078  -2098.223633  -22056.09765     55.248543
    4964           0        61.053078  -2098.223633  -22412.19726     53.307831
    4965           0        61.053078  -2098.223633  -22768.29296     51.089603
    4966           0        61.053078  -2098.223633  -23124.39062     48.617764
    4967           0        61.053078  -2098.223633  -23480.48828     45.928734
    4968           0        61.053078  -2098.223633  -23836.58789     43.065807
    4969           0        61.053078  -2098.223633  -24192.68554     40.071026
    4970           0        61.053078  -2098.223633  -24548.78125     36.979153
    4971           0        61.053078  -2098.223633  -24904.87890     33.811356
    4972           0        61.053078  -2098.223633  -25260.97656     30.578978
    4973           0        61.053082  -2098.223633  -25617.07226     27.285069
    4974           0        61.053082  -2098.223633  -25973.17187     23.943712
    4975           0        61.053082  -2098.223633  -26329.26953     20.573948
    4976           0        61.053082  -2098.223633  -26685.36914     17.229439
    4977           0        61.053082  -2098.223633  -27041.46484     13.978395
    4978           0        61.053082  -2098.223633  -27397.56250     10.965857
    4979           0        61.053082  -2098.223633  -27753.66015      8.462756
    4980           0        61.053082  -2098.223633  -28109.75781      7.060996
    4981           0        61.053082  -2098.223633  -28465.85351      7.060044
    4982           0        61.053078  -2098.223633  -28821.95117      8.777908
    4983           0       182.950684  -2091.123779  -14578.05078     77.325165
    4984           0       182.950684  -2091.123779  -14934.14843     79.745888
    4985           0       182.950684  -2091.123779  -15290.24609     77.302971
    4986           0       182.950684  -2091.123779  -15646.34277     75.172966
    4987           0       182.950684  -2091.123779  -16002.44140     73.549606
    4988           0       182.950684  -2091.123779  -16358.53808     71.749016
    4989           0       182.950668  -2091.123779  -16714.63671     70.204620
    4990           0       182.950653  -2091.123779  -17070.73437     68.672882
    4991           0       182.950653  -2091.123779  -17426.83007     67.275261
    4992           0       182.950653  -2091.123779  -17782.92773     65.943085
    4993           0       182.950668  -2091.123779  -18139.02539     64.715836
    4994           0       182.950668  -2091.123779  -18495.12304     63.583992
    4995           0       182.950668  -2091.123779  -18851.22070     62.562248
    4996           0       182.950668  -2091.123779  -19207.31835     61.639713
    4997           0       182.950668  -2091.123779  -19563.41796     60.795555
    4998           0       182.950668  -2091.123779  -19919.51367     59.988979
    4999           0       182.950668  -2091.123779  -20275.61132     59.168392
    5000           0       182.950668  -2091.123779  -20631.70898     58.275547
    5001           0       182.950668  -2091.123779  -20987.80664     57.253540
    5002           0       182.950668  -2091.123779  -21343.90234     56.052074
    5003           0       182.950668  -2091.123779  -21700.00000     54.632080
    5004           0       182.950653  -2091.123779  -22056.09765     52.968132
    5005           0       182.950653  -2091.123779  -22412.19726     51.049679
    5006           0       182.950653  -2091.123779  -22768.29492     48.880795
    5007           0       182.950653  -2091.123779  -23124.39062     46.479042
    5008           0       182.950653  -2091.123779  -23480.48828     43.872929
    5009           0       182.950653  -2091.123779  -23836.58789     41.098946
    5010           0       182.950653  -2091.123779  -24192.68554     38.197010
    5011           0       182.950653  -2091.123779  -24548.78125     35.206318
    5012           0       182.950653  -2091.123779  -24904.87890     32.160015
    5013           0       182.950653  -2091.123779  -25260.97460     29.084208
    5014           0       182.950668  -2091.123779  -25617.07226     25.995501
    5015           0       182.950668  -2091.123779  -25973.17187     22.913506
    5016           0       182.950668  -2091.123779  -26329.26953     19.861280
    5017           0       182.950653  -2091.123779  -26685.36914     16.894289
    5018           0       182.950653  -2091.123779  -27041.46484     14.097129
    5019           0       182.950653  -2091.123779  -27397.56250     11.625368
    5020           0       182.950653  -2091.123779  -27753.66015      9.737142
    5021           0       182.950653  -2091.123779  -28109.75781      8.833641
    5022           0       182.950653  -2091.123779  -28465.85351      8.938178
    5023           0       182.950668  -2091.123779  -28821.94921     10.318818
    5024           0       304.229187  -2076.948242  -14578.05078     73.831665
    5025           0       304.229187  -2076.948242  -14934.14843     76.206459
    5026           0       304.229187  -2076.948242  -15290.24609     73.830658
    5027           0       304.229187  -2076.948242  -15646.34277     71.852760
    5028           0       304.229187  -2076.948242  -16002.44140     70.275154
    5029           0       304.229187  -2076.948242  -16358.53808     68.571182
    5030           0       304.229187  -2076.948242  -16714.63671     67.075310
    5031           0       304.229187  -2076.948242  -17070.73437     65.598061
    5032           0       304.229187  -2076.948242  -17426.83203     64.235954
    5033           0       304.229187  -2076.948242  -17782.92968     62.943832
    5034           0       304.229187  -2076.948242  -18139.02539     61.761711
    5035           0       304.229187  -2076.948242  -18495.12304     60.682171
    5036           0       304.229187  -2076.948242  -18851.22070     59.704166
    5037           0       304.229187  -2076.948242  -19207.31835     58.797375
    5038           0       304.229187  -2076.948242  -19563.41796     57.923626
    5039           0       304.229187  -2076.948242  -19919.51562     57.036510
    5040           0       304.229187  -2076.948242  -20275.61132     56.090988
    5041           0       304.229187  -2076.948242  -20631.70898     55.045959
    5042           0       304.229187  -2076.948242  -20987.80664     53.866676
    5043           0       304.229187  -2076.948242  -21343.90234     52.525543
    5044           0       304.229156  -2076.948242  -21700.00000     51.002121
    5045           0       304.229156  -2076.948242  -22056.09765     49.283302
    5046           0       304.229156  -2076.948242  -22412.19726     47.362965
    5047           0       304.229156  -2076.948242  -22768.29296     45.242313
    5048           0       304.229156  -2076.948242  -23124.39062     42.929813
    5049           0       304.229156  -2076.948242  -23480.48828     40.442120
    5050           0       304.229156  -2076.948242  -23836.58789     37.804203
    5051           0       304.229156  -2076.948242  -24192.68359     35.050449
    5052           0       304.229156  -2076.948242  -24548.78125     32.223003
    5053           0       304.229156  -2076.948242  -24904.87890     29.369516
    5054           0       304.229156  -2076.948242  -25260.97656     26.536516
    5055           0       304.229156  -2076.948242  -25617.07421     23.762657
    5056           0       304.229156  -2076.948242  -25973.17187     21.078331
    5057           0       304.229156  -2076.948242  -26329.26953     18.511648
    5058           0       304.229156  -2076.948242  -26685.36914     16.110540
    5059           0       304.229126  -2076.948242  -27041.46484     13.960600
    5060           0       304.229126  -2076.948242  -27397.56250     12.188600
    5061           0       304.229126  -2076.948242  -27753.66015     10.982983
    5062           0       304.229126  -2076.948242  -28109.75781     10.550333
    5063           0       304.229126  -2076.948242  -28465.85351     10.781484
    5064           0       304.229187  -2076.948242  -28821.95312     11.907330
    5065           0       424.478271  -2055.745117  -14578.05078     69.763512
    5066           0       424.478271  -2055.745117  -14934.14843     72.089394
    5067           0       424.478271  -2055.745117  -15290.24609     69.769432
    5068           0       424.478271  -2055.745117  -15646.34277     67.969688
    5069           0       424.478271  -2055.745117  -16002.44140     66.425697
    5070           0       424.478271  -2055.745117  -16358.53808     64.825356
    5071           0       424.478271  -2055.745117  -16714.63671     63.369663
    5072           0       424.478271  -2055.745117  -17070.73437     61.946316
    5073           0       424.478271  -2055.745117  -17426.83203     60.621628
    5074           0       424.478271  -2055.745117  -17782.92968     59.381123
    5075           0       424.478271  -2055.745117  -18139.02539     58.257912
    5076           0       424.478271  -2055.745117  -18495.12304     57.237469
    5077           0       424.478271  -2055.745117  -18851.22070     56.295788
    5078           0       424.478271  -2055.745117  -19207.31835     55.383125
    5079           0       424.478271  -2055.745117  -19563.41796     54.450085
    5080           0       424.478271  -2055.745117  -19919.51562     53.451469
    5081           0       424.478271  -2055.745117  -20275.61132     52.354362
    5082           0       424.478271  -2055.745117  -20631.70898     51.136890
    5083           0       424.478271  -2055.745117  -20987.80664     49.786640
    5084           0       424.478271  -2055.745117  -21343.90429     48.297348
    5085           0       424.478271  -2055.745117  -21700.00195     46.666267
    5086           0       424.478271  -2055.745117  -22056.09765     44.892365
    5087           0       424.478271  -2055.745117  -22412.19726     42.975262
    5088           0       424.478271  -2055.745117  -22768.29296     40.915703
    5089           0       424.478271  -2055.745117  -23124.39062     38.716534
    5090           0       424.478271  -2055.745117  -23480.48828     36.385628
    5091           0       424.478271  -2055.745117  -23836.58789     33.938408
    5092           0       424.478271  -2055.745117  -24192.68554     31.402573
    5093           0       424.478271  -2055.745117  -24548.78125     28.819036
    5094           0       424.478271  -2055.745117  -24904.87890     26.243315
    5095           0       424.478271  -2055.745117  -25260.97656     23.737619
    5096           0       424.478271  -2055.745117  -25617.07226     21.362503
    5097           0       424.478271  -2055.745117  -25973.17187     19.163502
    5098           0       424.478271  -2055.745117  -26329.26953     17.173960
    5099           0       424.478271  -2055.745117  -26685.36914     15.422598
    5100           0       424.478302  -2055.745117  -27041.46484     13.967710
    5101           0       424.478302  -2055.745117  -27397.56250     12.868731
    5102           0       424.478302  -2055.745117  -27753.66015     12.226986
    5103           0       424.478302  -2055.745117  -28109.75781     12.115220
    5104           0       424.478302  -2055.745117  -28465.85351     12.414488
    5105           0       424.478271  -2055.745117  -28821.95117     13.294617
    5106           0       543.291138  -2027.586060  -14578.05078     65.592613
    5107           0       543.291138  -2027.586060  -14934.14843     67.843826
    5108           0       543.291138  -2027.586060  -15290.24609     65.551361
    5109           0       543.291138  -2027.586060  -15646.34277     63.915798
    5110           0       543.291138  -2027.586060  -16002.44140     62.373878
    5111           0       543.291138  -2027.586060  -16358.53808     60.857700
    5112           0       543.291138  -2027.586060  -16714.63671     59.418953
    5113           0       543.291138  -2027.586060  -17070.73437     58.042206
    5114           0       543.291138  -2027.586060  -17426.83007     56.761993
    5115           0       543.291138  -2027.586060  -17782.92773     55.595016
    5116           0       543.291138  -2027.586060  -18139.02539     54.552769
    5117           0       543.291138  -2027.586060  -18495.12304     53.604347
    5118           0       543.291138  -2027.586060  -18851.22070     52.703197
    5119           0       543.291138  -2027.586060  -19207.31835     51.792202
    5120           0       543.291138  -2027.586060  -19563.41796     50.824886
    5121           0       543.291138  -2027.586060  -19919.51367     49.767349
    5122           0       543.291138  -2027.586060  -20275.61132     48.600426
    5123           0       543.291138  -2027.586060  -20631.70898     47.315823
    5124           0       543.291138  -2027.586060  -20987.80664     45.912151
    5125           0       543.291138  -2027.586060  -21343.90234     44.391693
    5126           0       543.291138  -2027.586060  -21700.00000     42.757458
    5127           0       543.291138  -2027.586060  -22056.09765     41.012501
    5128           0       543.291138  -2027.586060  -22412.19726     39.159100
    5129           0       543.291138  -2027.586060  -22768.29492     37.200260
    5130           0       543.291138  -2027.586060  -23124.39062     35.140415
    5131           0       543.291138  -2027.586060  -23480.48828     32.988831
    5132           0       543.291138  -2027.586060  -23836.58789     30.761080
    5133           0       543.291138  -2027.586060  -24192.68554     28.483934
    5134           0       543.291138  -2027.586060  -24548.78125     26.196095
    5135           0       543.291138  -2027.586060  -24904.87890     23.951580
    5136           0       543.291138  -2027.586060  -25260.97460     21.814312
    5137           0       543.291138  -2027.586060  -25617.07226     19.851809
    5138           0       543.291138  -2027.586060  -25973.17187     18.116501
    5139           0       543.291138  -2027.586060  -26329.26953     16.639061
    5140           0       543.291138  -2027.586060  -26685.36914     15.421260
    5141           0       543.291138  -2027.586060  -27041.46484     14.478389
    5142           0       543.291138  -2027.586060  -27397.56250     13.806774
    5143           0       543.291138  -2027.586060  -27753.66015     13.454327
    5144           0       543.291138  -2027.586060  -28109.75781     13.436329
    5145           0       543.291138  -2027.586060  -28465.85351     13.680882
    5146           0       543.291138  -2027.586060  -28821.94921     14.274503
    5147           0       660.265625  -1992.566162  -14578.05078     61.861729
    5148           0       660.265625  -1992.566162  -14934.14843     64.003021
    5149           0       660.265625  -1992.566162  -15290.24609     61.678379
    5150           0       660.265625  -1992.566162  -15646.34277     60.154530
    5151           0       660.265625  -1992.566162  -16002.44140     58.556908
    5152           0       660.265625  -1992.566162  -16358.53808     57.077217
    5153           0       660.265625  -1992.566162  -16714.63671     55.616390
    5154           0       660.265625  -1992.566162  -17070.73437     54.273697
    5155           0       660.265625  -1992.566162  -17426.83203     53.048420
    5156           0       660.265625  -1992.566162  -17782.92968     51.979717
    5157           0       660.265625  -1992.566162  -18139.02539     51.043175
    5158           0       660.265625  -1992.566162  -18495.12304     50.193359
    5159           0       660.265625  -1992.566162  -18851.22070     49.376572
    5160           0       660.265625  -1992.566162  -19207.31835     48.547848
    5161           0       660.265625  -1992.566162  -19563.41796     47.677380
    5162           0       660.265625  -1992.566162  -19919.51562     46.745453
    5163           0       660.265625  -1992.566162  -20275.61132     45.739399
    5164           0       660.265625  -1992.566162  -20631.70898     44.648548
    5165           0       660.265625  -1992.566162  -20987.80664     43.462528
    5166           0       660.265625  -1992.566162  -21343.90234     42.170563
    5167           0       660.265625  -1992.566162  -21700.00000     40.762444
    5168           0       660.265625  -1992.566162  -22056.09765     39.230339
    5169           0       660.265625  -1992.566162  -22412.19726     37.570633
    5170           0       660.265625  -1992.566162  -22768.29296     35.786121
    5171           0       660.265625  -1992.566162  -23124.39062     33.887138
    5172           0       660.265625  -1992.566162  -23480.48828     31.893007
    5173           0       660.265625  -1992.566162  -23836.58789     29.831680
    5174           0       660.265625  -1992.566162  -24192.68359     27.740200
    5175           0       660.265625  -1992.566162  -24548.78125     25.663595
    5176           0       660.265625  -1992.566162  -24904.87890     23.654295
    5177           0       660.265625  -1992.566162  -25260.97656     21.770002
    5178           0       660.265625  -1992.566162  -25617.07421     20.067263
    5179           0       660.265625  -1992.566162  -25973.17187     18.590092
    5180           0       660.265625  -1992.566162  -26329.26953     17.357361
    5181           0       660.265625  -1992.566162  -26685.36914     16.353132
    5182           0       660.265625  -1992.566162  -27041.46484     15.565811
    5183           0       660.265625  -1992.566162  -27397.56250     14.965413
    5184           0       660.265625  -1992.566162  -27753.66015     14.583657
    5185           0       660.265625  -1992.566162  -28109.75781     14.419591
    5186           0       660.265625  -1992.566162  -28465.85351     14.458981
    5187           0       660.265625  -1992.566162  -28821.95312     14.703384
    5188           0       775.005920  -1950.803833  -14578.05078     59.141804
    5189           0       775.005920  -1950.803833  -14934.14843     61.115070
    5190           0       775.005920  -1950.803833  -15290.24609     58.680119
    5191           0       775.005920  -1950.803833  -15646.34277     57.167320
    5192           0       775.005920  -1950.803833  -16002.44140     55.434578
    5193           0       775.005920  -1950.803833  -16358.53808     53.913288
    5194           0       775.005920  -1950.803833  -16714.63671     52.379845
    5195           0       775.005920  -1950.803833  -17070.73437     51.052094
    5196           0       775.005920  -1950.803833  -17426.83203     49.885349
    5197           0       775.005920  -1950.803833  -17782.92968     48.926727
    5198           0       775.005920  -1950.803833  -18139.02539     48.116318
    5199           0       775.005920  -1950.803833  -18495.12304     47.416569
    5200           0       775.005920  -1950.803833  -18851.22070     46.790714
    5201           0       775.005920  -1950.803833  -19207.31835     46.219765
    5202           0       775.005920  -1950.803833  -19563.41796     45.687939
    5203           0       775.005920  -1950.803833  -19919.51562     45.175781
    5204           0       775.005920  -1950.803833  -20275.61132     44.655487
    5205           0       775.005920  -1950.803833  -20631.70898     44.091274
    5206           0       775.005920  -1950.803833  -20987.80664     43.441994
    5207           0       775.005920  -1950.803833  -21343.90429     42.666447
    5208           0       775.005920  -1950.803833  -21700.00195     41.727383
    5209           0       775.005920  -1950.803833  -22056.09765     40.596565
    5210           0       775.005920  -1950.803833  -22412.19726     39.257175
    5211           0       775.005920  -1950.803833  -22768.29296     37.706825
    5212           0       775.005920  -1950.803833  -23124.39062     35.957916
    5213           0       775.005920  -1950.803833  -23480.48828     34.038330
    5214           0       775.005920  -1950.803833  -23836.58789     31.990049
    5215           0       775.005920  -1950.803833  -24192.68554     29.867035
    5216           0       775.005920  -1950.803833  -24548.78125     27.732767
    5217           0       775.005920  -1950.803833  -24904.87890     25.653980
    5218           0       775.005920  -1950.803833  -25260.97656     23.697689
    5219           0       775.005920  -1950.803833  -25617.07226     21.918829
    5220           0       775.005920  -1950.803833  -25973.17187     20.356146
    5221           0       775.005920  -1950.803833  -26329.26953     19.019054
    5222           0       775.005920  -1950.803833  -26685.36914     17.884710
    5223           0       775.005920  -1950.803833  -27041.46484     16.928101
    5224           0       775.005920  -1950.803833  -27397.56250     16.112331
    5225           0       775.005920  -1950.803833  -27753.66015     15.462051
    5226           0       775.005920  -1950.803833  -28109.75781     14.977407
    5227           0       775.005920  -1950.803833  -28465.85351     14.687157
    5228           0       775.005920  -1950.803833  -28821.95117     14.547854
    5229           0       887.123901  -1902.440918  -14578.05078     57.960114
    5230           0       887.123901  -1902.440918  -14934.14843     59.701599
    5231           0       887.123901  -1902.440918  -15290.24609     57.050888
    5232           0       887.123901  -1902.440918  -15646.34277     55.408962
    5233           0       887.123901  -1902.440918  -16002.44140     53.440887
    5234           0       887.123901  -1902.440918  -16358.53808     51.776585
    5235           0       887.123901  -1902.440918  -16714.63671     50.113605
    5236           0       887.123901  -1902.440918  -17070.73437     48.766373
    5237           0       887.123901  -1902.440918  -17426.83007     47.633022
    5238           0       887.123901  -1902.440918  -17782.92773     46.761116
    5239           0       887.123901  -1902.440918  -18139.02539     46.085258
    5240           0       887.123901  -1902.440918  -18495.12304     45.605946
    5241           0       887.123901  -1902.440918  -18851.22070     45.316364
    5242           0       887.123901  -1902.440918  -19207.31835     45.209442
    5243           0       887.123901  -1902.440918  -19563.41796     45.257034
    5244           0       887.123901  -1902.440918  -19919.51367     45.408497
    5245           0       887.123901  -1902.440918  -20275.61132     45.596603
    5246           0       887.123901  -1902.440918  -20631.70898     45.744862
    5247           0       887.123901  -1902.440918  -20987.80664     45.776821
    5248           0       887.123901  -1902.440918  -21343.90234     45.622742
    5249           0       887.123901  -1902.440918  -21700.00000     45.224350
    5250           0       887.123901  -1902.440918  -22056.09765     44.538147
    5251           0       887.123901  -1902.440918  -22412.19726     43.536758
    5252           0       887.123901  -1902.440918  -22768.29492     42.210182
    5253           0       887.123901  -1902.440918  -23124.39062     40.566235
    5254           0       887.123901  -1902.440918  -23480.48828     38.630840
    5255           0       887.123901  -1902.440918  -23836.58789     36.449085
    5256           0       887.123901  -1902.440918  -24192.68554     34.083828
    5257           0       887.123901  -1902.440918  -24548.78125     31.616819
    5258           0       887.123901  -1902.440918  -24904.87890     29.140528
    5259           0       887.123901  -1902.440674  -25260.97460     26.754736
    5260           0       887.123901  -1902.440674  -25617.07226     24.544592
    5261           0       887.123901  -1902.440674  -25973.17187     22.571266
    5262           0       887.123901  -1902.440674  -26329.26953     20.851974
    5263           0       887.123901  -1902.440674  -26685.36914     19.362659
    5264           0       887.123901  -1902.440674  -27041.46484     18.064449
    5265           0       887.123901  -1902.440674  -27397.56250     16.908079
    5266           0       887.123901  -1902.440674  -27753.66015     15.902621
    5267           0       887.123901  -1902.440674  -28109.75781     15.053616
    5268           0       887.123901  -1902.440674  -28465.85351     14.417101
    5269           0       887.123901  -1902.440674  -28821.94921     13.944250
    5270           0       996.240112  -1847.640503  -14578.05078     58.748127
    5271           0       996.240112  -1847.640503  -14934.14843     60.181492
    5272           0       996.240112  -1847.640503  -15290.24609     57.192532
    5273           0       996.240112  -1847.640503  -15646.34277     55.247765
    5274           0       996.240112  -1847.640503  -16002.44140     52.932884
    5275           0       996.240112  -1847.640503  -16358.53808     51.017338
    5276           0       996.240112  -1847.640503  -16714.63671     49.161533
    5277           0       996.240112  -1847.640503  -17070.73437     47.724209
    5278           0       996.240112  -1847.640503  -17426.83203     46.536964
    5279           0       996.240112  -1847.640503  -17782.92968     45.673683
    5280           0       996.240112  -1847.640503  -18139.02539     45.106716
    5281           0       996.240112  -1847.640503  -18495.12304     44.885750
    5282           0       996.240112  -1847.640503  -18851.22070     45.010960
    5283           0       996.240112  -1847.640503  -19207.31835     45.449238
    5284           0       996.240112  -1847.640503  -19563.41796     46.126125
    5285           0       996.240112  -1847.640503  -19919.51562     46.940662
    5286           0       996.240112  -1847.640503  -20275.61132     47.784172
    5287           0       996.240112  -1847.640503  -20631.70898     48.550434
    5288           0       996.240112  -1847.640503  -20987.80664     49.145565
    5289           0       996.240112  -1847.640503  -21343.90234     49.490047
    5290           0       996.240112  -1847.640503  -21700.00000     49.520599
    5291           0       996.240112  -1847.640503  -22056.09765     49.189213
    5292           0       996.240112  -1847.640503  -22412.19726     48.462997
    5293           0       996.240112  -1847.640503  -22768.29296     47.323444
    5294           0       996.240112  -1847.640503  -23124.39062     45.767429
    5295           0       996.240112  -1847.640503  -23480.48828     43.807835
    5296           0       996.240112  -1847.640503  -23836.58789     41.477413
    5297           0       996.240112  -1847.640503  -24192.68359     38.830299
    5298           0       996.240112  -1847.640503  -24548.78125     35.948322
    5299           0       996.240112  -1847.640503  -24904.87890     32.938202
    5300           0       996.240112  -1847.640503  -25260.97656     29.932669
    5301           0       996.240112  -1847.640503  -25617.07421     27.068443
    5302           0       996.240112  -1847.640503  -25973.17187     24.465273
    5303           0       996.240112  -1847.640503  -26329.26953     22.186630
    5304           0       996.240112  -1847.640503  -26685.36914     20.226244
    5305           0       996.240112  -1847.640503  -27041.46484     18.540495
    5306           0       996.240112  -1847.640503  -27397.56250     17.063709
    5307           0       996.240112  -1847.640503  -27753.66015     15.785053
    5308           0       996.240112  -1847.640503  -28109.75781     14.704948
    5309           0       996.240112  -1847.640503  -28465.85351     13.907587
    5310           0       996.240112  -1847.640503  -28821.95312     13.293732
    5311           0      1101.985352  -1786.588501  -14578.05078     61.803310
    5312           0      1101.985352  -1786.588501  -14934.14843     62.837303
    5313           0      1101.985352  -1786.588501  -15290.24609     59.376137
    5314           0      1101.985352  -1786.588501  -15646.34277     56.932613
    5315           0      1101.985352  -1786.588501  -16002.44140     54.169346
    5316           0      1101.985352  -1786.588501  -16358.53808     51.900982
    5317           0      1101.985352  -1786.588501  -16714.63671     49.763706
    5318           0      1101.985352  -1786.588501  -17070.73437     48.085129
    5319           0      1101.985352  -1786.588501  -17426.83203     46.663605
    5320           0      1101.985352  -1786.588501  -17782.92968     45.651600
    5321           0      1101.985352  -1786.588501  -18139.02539     45.078835
    5322           0      1101.985352  -1786.588501  -18495.12304     45.015850
    5323           0      1101.985352  -1786.588501  -18851.22070     45.429317
    5324           0      1101.985352  -1786.588501  -19207.31835     46.234623
    5325           0      1101.985352  -1786.588501  -19563.41796     47.306599
    5326           0      1101.985352  -1786.588501  -19919.51562     48.508770
    5327           0      1101.985352  -1786.588501  -20275.61132     49.713543
    5328           0      1101.985352  -1786.588501  -20631.70898     50.809284
    5329           0      1101.985352  -1786.588501  -20987.80664     51.704082
    5330           0      1101.985352  -1786.588501  -21343.90429     52.323540
    5331           0      1101.985352  -1786.588501  -21700.00195     52.608273
    5332           0      1101.985352  -1786.588501  -22056.09765     52.511307
    5333           0      1101.985352  -1786.588501  -22412.19726     51.995869
    5334           0      1101.985352  -1786.588501  -22768.29296     51.034683
    5335           0      1101.985352  -1786.588501  -23124.39062     49.610218
    5336           0      1101.985352  -1786.588501  -23480.48828     47.716568
    5337           0      1101.985352  -1786.588501  -23836.58789     45.363266
    5338           0      1101.985352  -1786.588501  -24192.68554     42.580215
    5339           0      1101.985352  -1786.588501  -24548.78125     39.425980
    5340           0      1101.985352  -1786.588501  -24904.87890     35.994362
    5341           0      1101.985352  -1786.588501  -25260.97656     32.423161
    5342           0      1101.985352  -1786.588501  -25617.07226     28.888960
    5343           0      1101.985352  -1786.588501  -25973.17187     25.587008
    5344           0      1101.985352  -1786.588501  -26329.26953     22.678570
    5345           0      1101.985352  -1786.588501  -26685.36914     20.220985
    5346           0      1101.985352  -1786.588501  -27041.46484     18.193167
    5347           0      1101.985352  -1786.588501  -27397.56250     16.523905
    5348           0      1101.985352  -1786.588501  -27753.66015     15.220695
    5349           0      1101.985352  -1786.588501  -28109.75781     14.252735
    5350           0      1101.985352  -1786.588501  -28465.85351     13.765436
    5351           0      1101.985352  -1786.588501  -28821.95117     13.351221
    5352           0      1204.001953  -1719.490967  -14578.05078     67.241631
    5353           0      1204.001953  -1719.490967  -14934.14843     67.785713
    5354           0      1204.001953  -1719.490967  -15290.24609     63.705757
    5355           0      1204.001953  -1719.490967  -15646.34277     60.572376
    5356           0      1204.001953  -1719.490967  -16002.44140     57.291527
    5357           0      1204.001953  -1719.490967  -16358.53808     54.559513
    5358           0      1204.001953  -1719.490967  -16714.63671     51.967457
    5359           0      1204.001953  -1719.490967  -17070.73437     49.768696
    5360           0      1204.001953  -1719.490967  -17426.83007     47.825134
    5361           0      1204.001953  -1719.490967  -17782.92773     46.393436
    5362           0      1204.001953  -1719.490967  -18139.02539     45.539318
    5363           0      1204.001953  -1719.490967  -18495.12304     45.313873
    5364           0      1204.001953  -1719.490967  -18851.22070     45.643124
    5365           0      1204.001953  -1719.490967  -19207.31835     46.404041
    5366           0      1204.001953  -1719.490967  -19563.41796     47.450130
    5367           0      1204.001953  -1719.490967  -19919.51367     48.635540
    5368           0      1204.001953  -1719.490967  -20275.61132     49.835243
    5369           0      1204.001953  -1719.490967  -20631.70898     50.943192
    5370           0      1204.001953  -1719.490967  -20987.80664     51.875359
    5371           0      1204.001953  -1719.490967  -21343.90234     52.562996
    5372           0      1204.001953  -1719.490967  -21700.00000     52.950550
    5373           0      1204.001953  -1719.490967  -22056.09765     52.991047
    5374           0      1204.001953  -1719.490967  -22412.19726     52.644291
    5375           0      1204.001953  -1719.490967  -22768.29492     51.875324
    5376           0      1204.001953  -1719.490967  -23124.39062     50.654224
    5377           0      1204.001953  -1719.490967  -23480.48828     48.957752
    5378           0      1204.001953  -1719.490967  -23836.58789     46.771645
    5379           0      1204.001953  -1719.490967  -24192.68554     44.096493
    5380           0      1204.001953  -1719.490967  -24548.78125     40.954830
    5381           0      1204.001953  -1719.490967  -24904.87890     37.403809
    5382           0      1204.001953  -1719.490967  -25260.97460     33.550964
    5383           0      1204.001953  -1719.490967  -25617.07226     29.572001
    5384           0      1204.001953  -1719.490967  -25973.17187     25.715769
    5385           0      1204.001953  -1719.490967  -26329.26953     22.276154
    5386           0      1204.001953  -1719.490967  -26685.36914     19.457476
    5387           0      1204.001953  -1719.490967  -27041.46484     17.316128
    5388           0      1204.001953  -1719.490967  -27397.56250     15.746691
    5389           0      1204.001953  -1719.490967  -27753.66015     14.844447
    5390           0      1204.001953  -1719.490967  -28109.75781     14.510015
    5391           0      1204.001953  -1719.490967  -28465.85351     14.980414
    5392           0      1204.001953  -1719.490967  -28821.94921     15.071042
    5393           0      1301.944458  -1646.575439  -14578.05078     74.976448
    5394           0      1301.944458  -1646.575439  -14934.14843     74.928085
    5395           0      1301.944458  -1646.575439  -15290.24609     70.097641
    5396           0      1301.944458  -1646.575439  -15646.34277     66.120621
    5397           0      1301.944458  -1646.575439  -16002.44140     62.275753
    5398           0      1301.944458  -1646.575439  -16358.53808     58.882465
    5399           0      1301.944458  -1646.575439  -16714.63671     55.498421
    5400           0      1301.944458  -1646.575439  -17070.73437     52.369850
    5401           0      1301.944458  -1646.575439  -17426.83203     49.513359
    5402           0      1301.944458  -1646.575439  -17782.92968     47.263374
    5403           0      1301.944458  -1646.575439  -18139.02539     45.684757
    5404           0      1301.944458  -1646.575439  -18495.12304     44.816261
    5405           0      1301.944458  -1646.575439  -18851.22070     44.574623
    5406           0      1301.944458  -1646.575439  -19207.31835     44.837875
    5407           0      1301.944458  -1646.575439  -19563.41796     45.461914
    5408           0      1301.944458  -1646.575439  -19919.51562     46.303749
    5409           0      1301.944458  -1646.575439  -20275.61132     47.237522
    5410           0      1301.944458  -1646.575439  -20631.70898     48.155319
    5411           0      1301.944458  -1646.575439  -20987.80664     48.968849
    5412           0      1301.944458  -1646.575439  -21343.90234     49.605705
    5413           0      1301.944458  -1646.575439  -21700.00000     50.005863
    5414           0      1301.944458  -1646.575439  -22056.09765     50.119194
    5415           0      1301.944458  -1646.575439  -22412.19726     49.901524
    5416           0      1301.944458  -1646.575439  -22768.29296     49.314583
    5417           0      1301.944458  -1646.575439  -23124.39062     48.322575
    5418           0      1301.944458  -1646.575439  -23480.48828     46.894939
    5419           0      1301.944458  -1646.575439  -23836.58789     45.003857
    5420           0      1301.944458  -1646.575439  -24192.68359     42.631050
    5421           0      1301.944580  -1646.575439  -24548.78125     39.769489
    5422           0      1301.944580  -1646.575439  -24904.87890     36.438206
    5423           0      1301.944580  -1646.575439  -25260.97656     32.699219
    5424           0      1301.944580  -1646.575439  -25617.07421     28.691467
    5425           0      1301.944580  -1646.575439  -25973.17187     24.673775
    5426           0      1301.944580  -1646.575439  -26329.26953     21.067030
    5427           0      1301.944580  -1646.575439  -26685.36914     18.326233
    5428           0      1301.944580  -1646.575439  -27041.46484     16.719841
    5429           0      1301.944580  -1646.575439  -27397.56250     15.938566
    5430           0      1301.944580  -1646.575439  -27753.66015     16.009363
    5431           0      1301.944580  -1646.575439  -28109.75781     16.707541
    5432           0      1301.944580  -1646.575439  -28465.85351     18.449440
    5433           0      1301.944580  -1646.575439  -28821.95312     19.029877
    5434           0      1395.481689  -1568.088257  -14578.05078     84.705399
    5435           0      1395.481689  -1568.088257  -14934.14843     83.954338
    5436           0      1395.481689  -1568.088257  -15290.24609     78.290947
    5437           0      1395.481689  -1568.088257  -15646.34277     73.362755
    5438           0      1395.481689  -1568.088257  -16002.44140     68.837776
    5439           0      1395.481689  -1568.088257  -16358.53808     64.364098
    5440           0      1395.481689  -1568.088257  -16714.63671     59.668343
    5441           0      1395.481689  -1568.088257  -17070.73437     55.111443
    5442           0      1395.481689  -1568.088257  -17426.83203     50.894524
    5443           0      1395.481689  -1568.088257  -17782.92968     47.372765
    5444           0      1395.481689  -1568.088257  -18139.02539     44.621555
    5445           0      1395.481689  -1568.088257  -18495.12304     42.709831
    5446           0      1395.481689  -1568.088257  -18851.22070     41.587616
    5447           0      1395.481689  -1568.088257  -19207.31835     41.152508
    5448           0      1395.481689  -1568.088257  -19563.41796     41.258392
    5449           0      1395.481689  -1568.088257  -19919.51562     41.741531
    5450           0      1395.481689  -1568.088257  -20275.61132     42.444412
    5451           0      1395.481689  -1568.088257  -20631.70898     43.227188
    5452           0      1395.481689  -1568.088257  -20987.80664     43.972237
    5453           0      1395.481689  -1568.088257  -21343.90429     44.585781
    5454           0      1395.481689  -1568.088257  -21700.00195     44.992386
    5455           0      1395.481689  -1568.088257  -22056.09765     45.134396
    5456           0      1395.481689  -1568.088257  -22412.19726     44.964962
    5457           0      1395.481689  -1568.088257  -22768.29296     44.449028
    5458           0      1395.481689  -1568.088257  -23124.39062     43.556030
    5459           0      1395.481689  -1568.088257  -23480.48828     42.264126
    5460           0      1395.481689  -1568.088257  -23836.58789     40.552238
    5461           0      1395.481689  -1568.088257  -24192.68554     38.408157
    5462           0      1395.481689  -1568.088257  -24548.78125     35.824574
    5463           0      1395.481689  -1568.088257  -24904.87890     32.811245
    5464           0      1395.481689  -1568.088257  -25260.97656     29.415030
    5465           0      1395.481689  -1568.088257  -25617.07226     25.748877
    5466           0      1395.481689  -1568.088257  -25973.17187     22.087088
    5467           0      1395.481689  -1568.088257  -26329.26953     18.970966
    5468           0      1395.481689  -1568.088257  -26685.36914     17.168644
    5469           0      1395.481689  -1568.088257  -27041.46484     17.229065
    5470           0      1395.481689  -1568.088257  -27397.56250     18.334665
    5471           0      1395.481689  -1568.088257  -27753.66015     19.913559
    5472           0      1395.481689  -1568.088257  -28109.75781     21.636597
    5473           0      1395.481689  -1568.088257  -28465.85351     24.403990
    5474           0      1395.481689  -1568.088257  -28821.95117     25.238968
    5475           0      1484.296875  -1484.295166  -14578.05078     95.888268
    5476           0      1484.296875  -1484.295166  -14934.14843     94.353012
    5477           0      1484.296875  -1484.295166  -15290.24609     87.845001
    5478           0      1484.296875  -1484.295166  -15646.34277     81.838524
    5479           0      1484.296875  -1484.295166  -16002.44140     76.245987
    5480           0      1484.296875  -1484.295166  -16358.53808     69.995125
    5481           0      1484.296875  -1484.295166  -16714.63671     63.367226
    5482           0      1484.296875  -1484.295166  -17070.73437     56.938992
    5483           0      1484.296875  -1484.295166  -17426.83007     51.038898
    5484           0      1484.296875  -1484.295166  -17782.92773     46.048866
    5485           0      1484.296875  -1484.295166  -18139.02539     42.087463
    5486           0      1484.296875  -1484.295166  -18495.12304     39.300850
    5487           0      1484.296875  -1484.295166  -18851.22070     37.660713
    5488           0      1484.296875  -1484.295166  -19207.31835     37.047543
    5489           0      1484.296875  -1484.295166  -19563.41796     37.237087
    5490           0      1484.296875  -1484.295166  -19919.51367     37.968231
    5491           0      1484.296875  -1484.295166  -20275.61132     38.986618
    5492           0      1484.296875  -1484.295166  -20631.70898     40.082325
    5493           0      1484.296875  -1484.295166  -20987.80664     41.084621
    5494           0      1484.296875  -1484.295166  -21343.90234     41.875843
    5495           0      1484.296875  -1484.295166  -21700.00000     42.360420
    5496           0      1484.296875  -1484.295166  -22056.09765     42.483376
    5497           0      1484.296875  -1484.295166  -22412.19726     42.194103
    5498           0      1484.296875  -1484.295166  -22768.29492     41.473682
    5499           0      1484.296875  -1484.295166  -23124.39062     40.297947
    5500           0      1484.296875  -1484.295166  -23480.48828     38.669483
    5501           0      1484.296875  -1484.295166  -23836.58789     36.584671
    5502           0      1484.296875  -1484.295166  -24192.68554     34.062138
    5503           0      1484.296875  -1484.295166  -24548.78125     31.128832
    5504           0      1484.296875  -1484.295166  -24904.87890     27.831121
    5505           0      1484.296875  -1484.295166  -25260.97460     24.282038
    5506           0      1484.296875  -1484.295166  -25617.07226     20.662098
    5507           0      1484.296875  -1484.295166  -25973.17187     17.436094
    5508           0      1484.296875  -1484.295166  -26329.26953     15.461847
    5509           0      1484.296875  -1484.295166  -26685.36914     15.820048
    5510           0      1484.296875  -1484.295166  -27041.46484     18.759893
    5511           0      1484.296875  -1484.295166  -27397.56250     22.684593
    5512           0      1484.296875  -1484.295166  -27753.66015     26.304815
    5513           0      1484.296875  -1484.295166  -28109.75781     29.140484
    5514           0      1484.297119  -1484.295166  -28465.85351     32.611225
    5515           0      1484.296875  -1484.295166  -28821.94921     33.523121
    5516           0      1568.089844  -1395.479858  -14578.05078    107.788765
    5517           0      1568.089844  -1395.479858  -14934.14843    105.405495
    5518           0      1568.089844  -1395.479858  -15290.24609     98.128952
    5519           0      1568.089844  -1395.479858  -15646.34277     90.643089
    5520           0      1568.089844  -1395.479858  -16002.44140     83.169579
    5521           0      1568.089844  -1395.479858  -16358.53808     74.278549
    5522           0      1568.089844  -1395.479858  -16714.63671     65.300888
    5523           0      1568.089844  -1395.479858  -17070.73437     56.971554
    5524           0      1568.089844  -1395.479858  -17426.83203     49.708187
    5525           0      1568.089844  -1395.479858  -17782.92968     43.970783
    5526           0      1568.089844  -1395.479858  -18139.02539     39.943588
    5527           0      1568.089844  -1395.479858  -18495.12304     37.770149
    5528           0      1568.089844  -1395.479858  -18851.22070     37.254284
    5529           0      1568.089844  -1395.479858  -19207.31835     38.030739
    5530           0      1568.089844  -1395.479858  -19563.41796     39.621883
    5531           0      1568.089844  -1395.479858  -19919.51562     41.604565
    5532           0      1568.089844  -1395.479858  -20275.61132     43.646713
    5533           0      1568.089844  -1395.479858  -20631.70898     45.517876
    5534           0      1568.089844  -1395.479858  -20987.80664     47.058197
    5535           0      1568.089844  -1395.479858  -21343.90234     48.162815
    5536           0      1568.089844  -1395.479858  -21700.00000     48.760399
    5537           0      1568.089844  -1395.479858  -22056.09765     48.801537
    5538           0      1568.089844  -1395.479858  -22412.19726     48.257069
    5539           0      1568.089844  -1395.479858  -22768.29296     47.099781
    5540           0      1568.089844  -1395.479858  -23124.39062     45.325047
    5541           0      1568.089844  -1395.479858  -23480.48828     42.913689
    5542           0      1568.089844  -1395.479858  -23836.58789     39.883984
    5543           0      1568.089844  -1395.479858  -24192.68359     36.220383
    5544           0      1568.089844  -1395.479858  -24548.78125     31.979837
    5545           0      1568.089844  -1395.479858  -24904.87890     27.163174
    5546           0      1568.089844  -1395.479858  -25260.97656     21.938316
    5547           0      1568.089844  -1395.479858  -25617.07421     16.482937
    5548           0      1568.089844  -1395.479858  -25973.17187     11.695478
    5549           0      1568.089844  -1395.479858  -26329.26953      9.939878
    5550           0      1568.089844  -1395.479858  -26685.36914     13.471730
    5551           0      1568.089844  -1395.479858  -27041.46484     20.146112
    5552           0      1568.089844  -1395.479858  -27397.56250     27.458208
    5553           0      1568.089844  -1395.479858  -27753.66015     33.828182
    5554           0      1568.089844  -1395.479858  -28109.75781     38.511005
    5555           0      1568.089844  -1395.479858  -28465.85351     42.694244
    5556           0      1568.089844  -1395.479858  -28821.95312     43.685532
    5557           0      1646.576782  -1301.942627  -14578.05078    119.463684
    5558           0      1646.576782  -1301.942627  -14934.14843    116.283432
    5559           0      1646.576782  -1301.942627  -15290.24609    108.148537
    5560           0      1646.576782  -1301.942627  -15646.34277     98.242973
    5561           0      1646.576782  -1301.942627  -16002.44140     87.634163
    5562           0      1646.576782  -1301.942627  -16358.53808     75.665062
    5563           0      1646.576782  -1301.942627  -16714.63671     64.771713
    5564           0      1646.576782  -1301.942627  -17070.73437     55.723225
    5565           0      1646.576782  -1301.942627  -17426.83203     48.914772
    5566           0      1646.576782  -1301.942627  -17782.92968     44.869865
    5567           0      1646.576782  -1301.942627  -18139.02539     43.428234
    5568           0      1646.576782  -1301.942627  -18495.12304     44.202072
    5569           0      1646.576782  -1301.942627  -18851.22070     46.446590
    5570           0      1646.576782  -1301.942627  -19207.31835     49.473335
    5571           0      1646.576782  -1301.942627  -19563.41796     52.773026
    5572           0      1646.576782  -1301.942627  -19919.51562     55.968445
    5573           0      1646.576782  -1301.942627  -20275.61132     58.861748
    5574           0      1646.576782  -1301.942627  -20631.70898     61.281853
    5575           0      1646.576782  -1301.942627  -20987.80664     63.167625
    5576           0      1646.576782  -1301.942627  -21343.90429     64.431885
    5577           0      1646.576782  -1301.942627  -21700.00195     65.061691
    5578           0      1646.576782  -1301.942627  -22056.09765     65.002480
    5579           0      1646.576782  -1301.942627  -22412.19726     64.254303
    5580           0      1646.576782  -1301.942627  -22768.29296     62.776276
    5581           0      1646.576782  -1301.942627  -23124.39062     60.567955
    5582           0      1646.576782  -1301.942627  -23480.48828     57.594559
    5583           0      1646.576782  -1301.942627  -23836.58789     53.853836
    5584           0      1646.576782  -1301.942627  -24192.68554     49.312038
    5585           0      1646.576782  -1301.942627  -24548.78125     43.977276
    5586           0      1646.576782  -1301.942627  -24904.87890     37.814224
    5587           0      1646.576782  -1301.942627  -25260.97656     30.885088
    5588           0      1646.576782  -1301.942627  -25617.07226     23.202112
    5589           0      1646.576782  -1301.942627  -25973.17187     15.170759
    5590           0      1646.576782  -1301.942627  -26329.26953      8.504379
    5591           0      1646.576782  -1301.942627  -26685.36914     10.680264
    5592           0      1646.576782  -1301.942627  -27041.46484     20.012094
    5593           0      1646.576782  -1301.942627  -27397.56250     30.824751
    5594           0      1646.576782  -1301.942627  -27753.66015     40.763615
    5595           0      1646.576782  -1301.942627  -28109.75781     48.655361
    5596           0      1646.576782  -1301.942627  -28465.85351     54.138260
    5597           0      1646.576782  -1301.942627  -28821.95117     55.405449
    5598           0      1719.492432  -1204.000000  -14578.05078    129.887756
    5599           0      1719.492432  -1204.000000  -14934.14843    125.999374
    5600           0      1719.492432  -1204.000000  -15290.24609    116.320053
    5601           0      1719.492432  -1204.000000  -15646.34277    102.241402
    5602           0      1719.492432  -1204.000000  -16002.44140     87.691902
    5603           0      1719.492432  -1204.000000  -16358.53808     73.917282
    5604           0      1719.492432  -1204.000000  -16714.63671     63.581329
    5605           0      1719.492432  -1204.000000  -17070.73437     56.958416
    5606           0      1719.492432  -1204.000000  -17426.83007     54.017933
    5607           0      1719.492432  -1204.000000  -17782.92773     54.333080
    5608           0      1719.492432  -1204.000000  -18139.02539     56.826744
    5609           0      1719.492432  -1204.000000  -18495.12304     60.570309
    5610           0      1719.492432  -1204.000000  -18851.22070     64.821526
    5611           0      1719.492432  -1204.000000  -19207.31835     69.109413
    5612           0      1719.492432  -1204.000000  -19563.41796     73.129517
    5613           0      1719.492432  -1204.000000  -19919.51367     76.739433
    5614           0      1719.492432  -1204.000000  -20275.61132     79.794067
    5615           0      1719.492432  -1204.000000  -20631.70898     82.291504
    5616           0      1719.492432  -1204.000000  -20987.80664     84.128227
    5617           0      1719.492432  -1204.000000  -21343.90234     85.354172
    5618           0      1719.492432  -1204.000000  -21700.00000     85.875099
    5619           0      1719.492432  -1204.000000  -22056.09765     85.749886
    5620           0      1719.492432  -1204.000000  -22412.19726     84.890274
    5621           0      1719.492432  -1204.000000  -22768.29492     83.338165
    5622           0      1719.492432  -1204.000000  -23124.39062     81.019386
    5623           0      1719.492432  -1204.000000  -23480.48828     77.937965
    5624           0      1719.492432  -1204.000000  -23836.58789     74.050247
    5625           0      1719.492432  -1204.000000  -24192.68554     69.300697
    5626           0      1719.492432  -1204.000000  -24548.78125     63.703987
    5627           0      1719.492432  -1204.000000  -24904.87890     57.125786
    5628           0      1719.492432  -1204.000000  -25260.97460     49.691914
    5629           0      1719.492432  -1204.000000  -25617.07226     41.223003
    5630           0      1719.492432  -1204.000000  -25973.17187     32.145134
    5631           0      1719.492432  -1203.999878  -26329.26953     22.896814
    5632           0      1719.492432  -1203.999878  -26685.36914     16.599466
    5633           0      1719.492432  -1203.999878  -27041.46484     19.699707
    5634           0      1719.492432  -1203.999878  -27397.56250     31.139505
    5635           0      1719.492432  -1203.999878  -27753.66015     45.078594
    5636           0      1719.492432  -1203.999878  -28109.75781     57.846752
    5637           0      1719.492432  -1203.999878  -28465.85351     66.109024
    5638           0      1719.492432  -1203.999878  -28821.94921     68.077278
    5639           0      1786.589478  -1101.983398  -14578.05078    137.907028
    5640           0      1786.589478  -1101.983398  -14934.14843    133.445404
    5641           0      1786.589478  -1101.983398  -15290.24609    119.869736
    5642           0      1786.589478  -1101.983398  -15646.34277    100.147774
    5643           0      1786.589478  -1101.983398  -16002.44140     83.959373
    5644           0      1786.589478  -1101.983398  -16358.53808     73.080048
    5645           0      1786.589478  -1101.983398  -16714.63671     67.790932
    5646           0      1786.589478  -1101.983398  -17070.73437     66.961632
    5647           0      1786.589478  -1101.983398  -17426.83203     69.141624
    5648           0      1786.589478  -1101.983398  -17782.92968     73.016678
    5649           0      1786.589478  -1101.983398  -18139.02539     77.657692
    5650           0      1786.589478  -1101.983398  -18495.12304     82.369507
    5651           0      1786.589478  -1101.983398  -18851.22070     86.972122
    5652           0      1786.589478  -1101.983398  -19207.31835     91.084824
    5653           0      1786.589478  -1101.983398  -19563.41796     94.826157
    5654           0      1786.589478  -1101.983398  -19919.51562     97.922028
    5655           0      1786.589478  -1101.983398  -20275.61132    100.580566
    5656           0      1786.589478  -1101.983398  -20631.70898    102.564117
    5657           0      1786.589478  -1101.983398  -20987.80664    104.097679
    5658           0      1786.589478  -1101.983398  -21343.90234    104.954926
    5659           0      1786.589478  -1101.983398  -21700.00000    105.353142
    5660           0      1786.589478  -1101.983398  -22056.09765    105.065643
    5661           0      1786.589478  -1101.983398  -22412.19726    104.293953
    5662           0      1786.589478  -1101.983398  -22768.29296    102.803421
    5663           0      1786.589478  -1101.983398  -23124.39062    100.778160
    5664           0      1786.589478  -1101.983398  -23480.48828     97.968826
    5665           0      1786.589478  -1101.983398  -23836.58789     94.543388
    5666           0      1786.589478  -1101.983398  -24192.68359     90.231354
    5667           0      1786.589478  -1101.983398  -24548.78125     85.187881
    5668           0      1786.589478  -1101.983398  -24904.87890     79.119720
    5669           0      1786.589478  -1101.983398  -25260.97656     72.178116
    5670           0      1786.589478  -1101.983398  -25617.07421     64.081207
    5671           0      1786.589478  -1101.983398  -25973.17187     55.036877
    5672           0      1786.589478  -1101.983398  -26329.26953     45.060349
    5673           0      1786.589478  -1101.983398  -26685.36914     35.133789
    5674           0      1786.589478  -1101.983398  -27041.46484     28.218269
    5675           0      1786.589478  -1101.983398  -27397.56250     30.795412
    5676           0      1786.589478  -1101.983398  -27753.66015     44.369965
    5677           0      1786.589478  -1101.983398  -28109.75781     63.463188
    5678           0      1786.589478  -1101.983398  -28465.85351     76.964920
    5679           0      1786.589478  -1101.983398  -28821.95312     80.912323
    5680           0      1847.641602   -996.238037  -14578.05078    142.646790
    5681           0      1847.641602   -996.238037  -14934.14843    136.564499
    5682           0      1847.641602   -996.238037  -15290.24609    115.533730
    5683           0      1847.641602   -996.238037  -15646.34277     93.822769
    5684           0      1847.641602   -996.238037  -16002.44140     84.899117
    5685           0      1847.641602   -996.238037  -16358.53808     81.919487
    5686           0      1847.641602   -996.238037  -16714.63671     83.682838
    5687           0      1847.641602   -996.238037  -17070.73437     87.065613
    5688           0      1847.641602   -996.238037  -17426.83203     91.421600
    5689           0      1847.641602   -996.238037  -17782.92968     95.760094
    5690           0      1847.641602   -996.238037  -18139.02539     99.877274
    5691           0      1847.641602   -996.238037  -18495.12304    103.638985
    5692           0      1847.641602   -996.238037  -18851.22070    106.879372
    5693           0      1847.641602   -996.238037  -19207.31835    109.753105
    5694           0      1847.641602   -996.238037  -19563.41796    112.064217
    5695           0      1847.641602   -996.238037  -19919.51562    114.061165
    5696           0      1847.641602   -996.238037  -20275.61132    115.523048
    5697           0      1847.641602   -996.238037  -20631.70898    116.719017
    5698           0      1847.641602   -996.238037  -20987.80664    117.414139
    5699           0      1847.641602   -996.238037  -21343.90429    117.869095
    5700           0      1847.641602   -996.238037  -21700.00195    117.840317
    5701           0      1847.641602   -996.238037  -22056.09765    117.569077
    5702           0      1847.641602   -996.238037  -22412.19726    116.803207
    5703           0      1847.641602   -996.238037  -22768.29296    115.760742
    5704           0      1847.641602   -996.238037  -23124.39062    114.178169
    5705           0      1847.641602   -996.238037  -23480.48828    112.247101
    5706           0      1847.641602   -996.238037  -23836.58789    109.690590
    5707           0      1847.641602   -996.238037  -24192.68554    106.666115
    5708           0      1847.641602   -996.238037  -24548.78125    102.884789
    5709           0      1847.641602   -996.238037  -24904.87890     98.454475
    5710           0      1847.641602   -996.238037  -25260.97656     93.084045
    5711           0      1847.641602   -996.238037  -25617.07226     86.809395
    5712           0      1847.641602   -996.238037  -25973.17187     79.377167
    5713           0      1847.641602   -996.238037  -26329.26953     70.763924
    5714           0      1847.641602   -996.238037  -26685.36914     61.021198
    5715           0      1847.641602   -996.238037  -27041.46484     50.636391
    5716           0      1847.641602   -996.238037  -27397.56250     42.539612
    5717           0      1847.641602   -996.238037  -27753.66015     42.812237
    5718           0      1847.641602   -996.238037  -28109.75781     61.308918
    5719           0      1847.641602   -996.238037  -28465.85351     84.328163
    5720           0      1847.641602   -996.238037  -28821.95117     91.940369
    5721           0      1902.441772   -887.121765  -14578.05078    143.351898
    5722           0      1902.441772   -887.121765  -14934.14843    131.465820
    5723           0      1902.441772   -887.121765  -15290.24609    108.155685
    5724           0      1902.441772   -887.121765  -15646.34277     99.901268
    5725           0      1902.441772   -887.121765  -16002.44140    102.603027
    5726           0      1902.441772   -887.121765  -16358.53808    104.789536
    5727           0      1902.441772   -887.121765  -16714.63671    108.537750
    5728           0      1902.441772   -887.121765  -17070.73437    111.114090
    5729           0      1902.441772   -887.121765  -17426.83007    113.711487
    5730           0      1902.441772   -887.121765  -17782.92773    115.418686
    5731           0      1902.441772   -887.121765  -18139.02539    116.973534
    5732           0      1902.441772   -887.121765  -18495.12304    117.872864
    5733           0      1902.441772   -887.121765  -18851.22070    118.674133
    5734           0      1902.441772   -887.121765  -19207.31835    118.993584
    5735           0      1902.441772   -887.121765  -19563.41796    119.290398
    5736           0      1902.441772   -887.121765  -19919.51367    119.237953
    5737           0      1902.441772   -887.121765  -20275.61132    119.218567
    5738           0      1902.441772   -887.121765  -20631.70898    118.945602
    5739           0      1902.441772   -887.121765  -20987.80664    118.736877
    5740           0      1902.441772   -887.121765  -21343.90234    118.332802
    5741           0      1902.441772   -887.121765  -21700.00000    118.002014
    5742           0      1902.441772   -887.121765  -22056.09765    117.495712
    5743           0      1902.441772   -887.121765  -22412.19726    117.050461
    5744           0      1902.441772   -887.121765  -22768.29492    116.409645
    5745           0      1902.441772   -887.121765  -23124.39062    115.792969
    5746           0      1902.441772   -887.121765  -23480.48828    114.918098
    5747           0      1902.441772   -887.121765  -23836.58789    113.996521
    5748           0      1902.441772   -887.121765  -24192.68554    112.707428
    5749           0      1902.441772   -887.121765  -24548.78125    111.249855
    5750           0      1902.441772   -887.121765  -24904.87890    109.262398
    5751           0      1902.441772   -887.121765  -25260.97460    106.906578
    5752           0      1902.441772   -887.121765  -25617.07226    103.789406
    5753           0      1902.441772   -887.121765  -25973.17187     99.987724
    5754           0      1902.441772   -887.121765  -26329.26953     95.071365
    5755           0      1902.441772   -887.121765  -26685.36914     89.021721
    5756           0      1902.441772   -887.121765  -27041.46484     81.288910
    5757           0      1902.441772   -887.121765  -27397.56250     72.329018
    5758           0      1902.441772   -887.121765  -27753.66015     62.233150
    5759           0      1902.441772   -887.121765  -28109.75781     59.576492
    5760           0      1902.441772   -887.121765  -28465.85351     81.930412
    5761           0      1902.441772   -887.121765  -28821.94921     99.796135
    5762           0      1950.804565   -775.003784  -14578.05078    138.275742
    5763           0      1950.804565   -775.003784  -14934.14843    127.943810
    5764           0      1950.804565   -775.003784  -15290.24609    132.190903
    5765           0      1950.804565   -775.003784  -15646.34277    133.390640
    5766           0      1950.804565   -775.003784  -16002.44140    135.018906
    5767           0      1950.804565   -775.003784  -16358.53808    134.016144
    5768           0      1950.804688   -775.003784  -16714.63671    132.255630
    5769           0      1950.804688   -775.003784  -17070.73437    130.174606
    5770           0      1950.804688   -775.003784  -17426.83203    127.321861
    5771           0      1950.804688   -775.003784  -17782.92968    124.684662
    5772           0      1950.804688   -775.003784  -18139.02539    121.554642
    5773           0      1950.804688   -775.003784  -18495.12304    118.729866
    5774           0      1950.804688   -775.003784  -18851.22070    115.700256
    5775           0      1950.804688   -775.003784  -19207.31835    112.983337
    5776           0      1950.804688   -775.003784  -19563.41796    110.288574
    5777           0      1950.804688   -775.003784  -19919.51562    107.907097
    5778           0      1950.804688   -775.003784  -20275.61132    105.706024
    5779           0      1950.804688   -775.003784  -20631.70898    103.822365
    5780           0      1950.804688   -775.003784  -20987.80664    102.218636
    5781           0      1950.804688   -775.003784  -21343.90234    100.939301
    5782           0      1950.804688   -775.003784  -21700.00000     99.991455
    5783           0      1950.804688   -775.003784  -22056.09765     99.376266
    5784           0      1950.804688   -775.003784  -22412.19726     99.100929
    5785           0      1950.804688   -775.003784  -22768.29296     99.166779
    5786           0      1950.804688   -775.003784  -23124.39062     99.533745
    5787           0      1950.804688   -775.003784  -23480.48828    100.250824
    5788           0      1950.804688   -775.003784  -23836.58789    101.169960
    5789           0      1950.804688   -775.003784  -24192.68359    102.452042
    5790           0      1950.804688   -775.003784  -24548.78125    103.753937
    5791           0      1950.804688   -775.003784  -24904.87890    105.445366
    5792           0      1950.804688   -775.003784  -25260.97656    106.857986
    5793           0      1950.804688   -775.003784  -25617.07421    108.714775
    5794           0      1950.804688   -775.003784  -25973.17187    109.830376
    5795           0      1950.804688   -775.003784  -26329.26953    111.455933
    5796           0      1950.804688   -775.003784  -26685.36914    111.638756
    5797           0      1950.804688   -775.003784  -27041.46484    112.156448
    5798           0      1950.804688   -775.003784  -27397.56250    110.190422
    5799           0      1950.804688   -775.003784  -27753.66015    106.683197
    5800           0      1950.804688   -775.003784  -28109.75781     99.804535
    5801           0      1950.804688   -775.003784  -28465.85351     86.160629
    5802           0      1950.804688   -775.003784  -28821.95312     98.739525
    5803           0      1992.908203   -659.120605  -14578.05078    138.417267
    5804           0      1992.908203   -659.120605  -14934.14843    222.241470
    5805           0      1992.908203   -659.120605  -15290.24609    195.203186
    5806           0      1992.908203   -659.120605  -15646.34277    178.131836
    5807           0      1992.908203   -659.120605  -16002.44140    169.838058
    5808           0      1992.908203   -659.120605  -16358.53808    153.519958
    5809           0      1992.908203   -659.120605  -16714.63671    145.011398
    5810           0      1992.908203   -659.120605  -17070.73437    133.045517
    5811           0      1992.908203   -659.120605  -17426.83203    124.404167
    5812           0      1992.908203   -659.120605  -17782.92968    115.044434
    5813           0      1992.908203   -659.120605  -18139.02539    106.953484
    5814           0      1992.908203   -659.120605  -18495.12304     99.273659
    5815           0      1992.908203   -659.120605  -18851.22070     92.112610
    5816           0      1992.908203   -659.120605  -19207.31835     85.794853
    5817           0      1992.908203   -659.120605  -19563.41796     79.765816
    5818           0      1992.908203   -659.120605  -19919.51562     74.734444
    5819           0      1992.908203   -659.120605  -20275.61132     69.946877
    5820           0      1992.908203   -659.120605  -20631.70898     66.213303
    5821           0      1992.908203   -659.120605  -20987.80664     62.745159
    5822           0      1992.908203   -659.120605  -21343.90429     60.374481
    5823           0      1992.908203   -659.120605  -21700.00195     58.323681
    5824           0      1992.908203   -659.120605  -22056.09765     57.437431
    5825           0      1992.908203   -659.120605  -22412.19726     56.941528
    5826           0      1992.908203   -659.120605  -22768.29296     57.692982
    5827           0      1992.908203   -659.120605  -23124.39062     58.892132
    5828           0      1992.908203   -659.120605  -23480.48828     61.393913
    5829           0      1992.908203   -659.120605  -23836.58789     64.364815
    5830           0      1992.908203   -659.120605  -24192.68359     68.620361
    5831           0      1992.908203   -659.120605  -24548.78125     73.362434
    5832           0      1992.908203   -659.120605  -24904.87890     79.256882
    5833           0      1992.908203   -659.120605  -25260.97656     85.778732
    5834           0      1992.908203   -659.120605  -25617.07421     93.104622
    5835           0      1992.908203   -659.120605  -25973.17187    101.622490
    5836           0      1992.908203   -659.120605  -26329.26953    110.073608
    5837           0      1992.908203   -659.120605  -26685.36718    121.356232
    5838           0      1992.908203   -659.120605  -27041.46484    130.462769
    5839           0      1992.908203   -659.120605  -27397.56250    145.940491
    5840           0      1992.908203   -659.120605  -27753.66015    155.997025
    5841           0      1992.908203   -659.120605  -28109.75781    171.328171
    5842           0      1992.908203   -659.120605  -28465.85546    202.243774
    5843           0      1992.908203   -659.120605  -28821.95312    113.434914
    5844           0      2028.065308   -541.565674   -180.003326    155.777817
    5845           0      2028.065308   -541.565674   -540.003357    235.699463
    5846           0      2028.065308   -541.565674   -900.003418    190.043335
    5847           0      2028.065308   -541.565674  -1260.003418    174.992722
    5848           0      2028.065308   -541.565674  -1620.003418    154.063278
    5849           0      2028.065308   -541.565674  -1980.003540    137.739182
    5850           0      2028.065308   -541.565674  -2340.003906    122.379570
    5851           0      2028.065308   -541.565674  -2700.003906    109.204369
    5852           0      2028.065308   -541.565674  -3060.003418     96.885818
    5853           0      2028.065308   -541.565674  -3420.003906     86.310837
    5854           0      2028.065308   -541.565674  -3780.003906     76.516548
    5855           0      2028.065308   -541.565674  -4140.003906     68.301468
    5856           0      2028.065308   -541.565674  -4500.003906     61.027618
    5857           0      2028.065308   -541.565674  -4860.003906     55.279953
    5858           0      2028.065308   -541.565674  -5220.003906     50.695866
    5859           0      2028.065308   -541.565674  -5580.003906     47.596260
    5860           0      2028.065308   -541.565674  -5940.003906     45.752460
    5861           0      2028.065308   -541.565674  -6300.003906     45.224682
    5862           0      2028.065308   -541.565674  -6660.003906     45.790234
    5863           0      2028.065308   -541.565674  -7020.003906     47.392143
    5864           0      2028.065308   -541.565674  -7380.003906     49.808380
    5865           0      2028.065308   -541.565674  -7740.003906     53.068138
    5866           0      2028.065308   -541.565674  -8100.003418     56.943169
    5867           0      2028.065308   -541.565674  -8460.003906     61.648434
    5868           0      2028.065308   -541.565674  -8820.003906     66.861862
    5869           0      2028.065308   -541.565674  -9180.003906     73.034973
    5870           0      2028.065308   -541.565674  -9540.003906     79.595612
    5871           0      2028.065308   -541.565674  -9900.003906     87.369484
    5872           0      2028.065308   -541.565674  -10260.00390     95.246681
    5873           0      2028.065308   -541.565674  -10620.00390    104.821648
    5874           0      2028.065308   -541.565674  -10980.00390    113.817352
    5875           0      2028.065308   -541.565674  -11340.00390    125.582764
    5876           0      2028.065308   -541.565674  -11700.00390    135.213104
    5877           0      2028.065308   -541.565674  -12060.00390    150.092209
    5878           0      2028.065308   -541.565674  -12420.00390    159.471954
    5879           0      2028.065308   -541.565674  -12780.00390    179.078033
    5880           0      2028.065308   -541.565674  -13140.00390    188.073669
    5881           0      2028.065308   -541.565674  -13500.00390    208.068024
    5882           0      2028.065308   -541.565674  -13860.00390    237.795853
    5883           0      2028.065308   -541.565674  -14220.00293    155.039597
    5884           0      2055.883057   -423.895721   -180.003326    144.626617
    5885           0      2055.883057   -423.895721   -540.003357    118.430420
    5886           0      2055.883057   -423.895721   -900.003418    128.754990
    5887           0      2055.883057   -423.895721  -1260.003418    128.434921
    5888           0      2055.883057   -423.895721  -1620.003418    129.327164
    5889           0      2055.883057   -423.895721  -1980.003540    125.744347
    5890           0      2055.883057   -423.895721  -2340.003906    123.010178
    5891           0      2055.883057   -423.895721  -2700.003906    118.902313
    5892           0      2055.883057   -423.895721  -3060.003418    115.321831
    5893           0      2055.883057   -423.895721  -3420.003906    111.392342
    5894           0      2055.883057   -423.895721  -3780.003906    107.951988
    5895           0      2055.883057   -423.895721  -4140.003906    104.556389
    5896           0      2055.883057   -423.895721  -4500.003906    101.716415
    5897           0      2055.883057   -423.895721  -4860.003906     99.109871
    5898           0      2055.883057   -423.895721  -5220.003906     97.131508
    5899           0      2055.883057   -423.895721  -5580.003906     95.488930
    5900           0      2055.883057   -423.895721  -5940.003906     94.516846
    5901           0      2055.883057   -423.895721  -6300.003906     93.933006
    5902           0      2055.883057   -423.895721  -6660.003906     94.024605
    5903           0      2055.883057   -423.895721  -7020.003906     94.521889
    5904           0      2055.883057   -423.895721  -7380.003906     95.667191
    5905           0      2055.883057   -423.895721  -7740.003906     97.209709
    5906           0      2055.883057   -423.895721  -8100.003418     99.347809
    5907           0      2055.883057   -423.895721  -8460.003906    101.855209
    5908           0      2055.883057   -423.895721  -8820.003906    104.882835
    5909           0      2055.883057   -423.895721  -9180.003906    108.237366
    5910           0      2055.883057   -423.895721  -9540.003906    112.004822
    5911           0      2055.883057   -423.895721  -9900.003906    116.050827
    5912           0      2055.883057   -423.895721  -10260.00390    120.343605
    5913           0      2055.883057   -423.895721  -10620.00390    124.887169
    5914           0      2055.883057   -423.895721  -10980.00390    129.388260
    5915           0      2055.883057   -423.895721  -11340.00390    134.211105
    5916           0      2055.883057   -423.895721  -11700.00390    138.406235
    5917           0      2055.883057   -423.895721  -12060.00390    143.300156
    5918           0      2055.883057   -423.895721  -12420.00390    146.155563
    5919           0      2055.883057   -423.895721  -12780.00390    150.912430
    5920           0      2055.883057   -423.895721  -13140.00390    149.971832
    5921           0      2055.883057   -423.895721  -13500.00390    153.641891
    5922           0      2055.883057   -423.895721  -13860.00390    151.026382
    5923           0      2055.883057   -423.895721  -14220.00390    163.360001
    5924           0      2076.948730   -304.226929   -180.003326    147.469727
    5925           0      2076.948730   -304.226929   -540.003357    110.631325
    5926           0      2076.948730   -304.226929   -900.003418     84.422592
    5927           0      2076.948730   -304.226929  -1260.003418     84.971931
    5928           0      2076.948730   -304.226929  -1620.003418     90.498405
    5929           0      2076.948730   -304.226929  -1980.003540     96.650200
    5930           0      2076.948730   -304.226929  -2340.003906    101.390091
    5931           0      2076.948730   -304.226929  -2700.003906    105.377037
    5932           0      2076.948730   -304.226929  -3060.003418    108.297066
    5933           0      2076.948730   -304.226929  -3420.003418    110.547234
    5934           0      2076.948730   -304.226929  -3780.003418    112.282761
    5935           0      2076.948730   -304.226929  -4140.003906    113.514610
    5936           0      2076.948730   -304.226929  -4500.003906    114.550621
    5937           0      2076.948730   -304.226929  -4860.003906    115.258049
    5938           0      2076.948730   -304.226929  -5220.003906    115.930099
    5939           0      2076.948730   -304.226929  -5580.003906    116.430328
    5940           0      2076.948730   -304.226929  -5940.003906    116.967072
    5941           0      2076.948730   -304.226929  -6300.003906    117.455383
    5942           0      2076.948730   -304.226929  -6660.003906    118.001457
    5943           0      2076.948730   -304.226929  -7020.003906    118.584129
    5944           0      2076.948730   -304.226929  -7380.003906    119.213959
    5945           0      2076.948730   -304.226929  -7740.003906    119.927025
    5946           0      2076.948730   -304.226929  -8100.003906    120.653297
    5947           0      2076.948730   -304.226929  -8460.003906    121.472404
    5948           0      2076.948730   -304.226929  -8820.003906    122.251221
    5949           0      2076.948730   -304.226929  -9180.003906    123.097092
    5950           0      2076.948730   -304.226929  -9540.003906    123.831779
    5951           0      2076.948730   -304.226929  -9900.003906    124.577072
    5952           0      2076.948730   -304.226929  -10260.00390    125.125267
    5953           0      2076.948730   -304.226929  -10620.00390    125.614799
    5954           0      2076.948730   -304.226929  -10980.00390    125.804382
    5955           0      2076.948730   -304.226929  -11340.00390    125.917297
    5956           0      2076.948730   -304.226929  -11700.00390    125.584633
    5957           0      2076.948730   -304.226929  -12060.00390    125.455894
    5958           0      2076.948730   -304.226929  -12420.00390    124.620087
    5959           0      2076.948730   -304.226929  -12780.00390    125.759308
    5960           0      2076.948730   -304.226929  -13140.00390    126.142624
    5961           0      2076.948730   -304.226929  -13500.00390    137.687180
    5962           0      2076.948730   -304.226929  -13860.00390    161.300888
    5963           0      2076.948730   -304.226929  -14220.00390    172.805130
    5964           0      2091.124268   -182.948318   -180.003326    141.343155
    5965           0      2091.124268   -182.948318   -540.003357    122.255730
    5966           0      2091.124268   -182.948318   -900.003418     90.677406
    5967           0      2091.124268   -182.948318  -1260.003418     65.456467
    5968           0      2091.124268   -182.948318  -1620.003418     60.659992
    5969           0      2091.124268   -182.948318  -1980.003418     63.590427
    5970           0      2091.124268   -182.948318  -2340.003418     70.828247
    5971           0      2091.124268   -182.948318  -2700.003418     78.625938
    5972           0      2091.124268   -182.948318  -3060.003418     85.932045
    5973           0      2091.124268   -182.948318  -3420.003418     92.530884
    5974           0      2091.124268   -182.948318  -3780.003662     98.132568
    5975           0      2091.124268   -182.948318  -4140.003418    103.073692
    5976           0      2091.124268   -182.948318  -4500.003906    107.116646
    5977           0      2091.124268   -182.948318  -4860.003906    110.661926
    5978           0      2091.124268   -182.948318  -5220.003906    113.476959
    5979           0      2091.124268   -182.948318  -5580.003418    115.912239
    5980           0      2091.124268   -182.948318  -5940.003418    117.770599
    5981           0      2091.124268   -182.948318  -6300.003906    119.314201
    5982           0      2091.124268   -182.948318  -6660.003906    120.402748
    5983           0      2091.124268   -182.948318  -7020.003906    121.201065
    5984           0      2091.124268   -182.948318  -7380.003418    121.631729
    5985           0      2091.124268   -182.948318  -7740.003906    121.769180
    5986           0      2091.124268   -182.948318  -8100.003906    121.593735
    5987           0      2091.124268   -182.948318  -8460.003906    121.107414
    5988           0      2091.124268   -182.948318  -8820.003906    120.336510
    5989           0      2091.124268   -182.948318  -9180.003906    119.239975
    5990           0      2091.124268   -182.948318  -9540.002930    117.875854
    5991           0      2091.124268   -182.948318  -9900.003906    116.207054
    5992           0      2091.124268   -182.948318  -10260.00390    114.313423
    5993           0      2091.124268   -182.948318  -10620.00390    112.242607
    5994           0      2091.124268   -182.948318  -10980.00390    110.108040
    5995           0      2091.124268   -182.948318  -11340.00390    108.201920
    5996           0      2091.124268   -182.948318  -11700.00390    106.747589
    5997           0      2091.124268   -182.948318  -12060.00390    106.661148
    5998           0      2091.124268   -182.948318  -12420.00390    108.467590
    5999           0      2091.124268   -182.948318  -12780.00390    114.692055
    6000           0      2091.124268   -182.948318  -13140.00390    125.606369
    6001           0      2091.124268   -182.948318  -13500.00390    149.382431
    6002           0      2091.124268   -182.948318  -13860.00390    170.382675
    6003           0      2091.124268   -182.948318  -14220.00390    175.821167
    6004           0      2098.223877    -61.050758   -180.003326    130.326309
    6005           0      2098.223877    -61.050758   -540.003357    121.031097
    6006           0      2098.223877    -61.050758   -900.003418    100.244682
    6007           0      2098.223877    -61.050758  -1260.003418     72.380554
    6008           0      2098.223877    -61.050758  -1620.003418     52.947102
    6009           0      2098.223877    -61.050758  -1980.003540     42.780006
    6010           0      2098.223877    -61.050758  -2340.003662     42.429504
    6011           0      2098.223877    -61.050758  -2700.003662     48.602062
    6012           0      2098.223877    -61.050758  -3060.003418     57.026169
    6013           0      2098.223877    -61.050758  -3420.003906     65.553299
    6014           0      2098.223877    -61.050758  -3780.003906     73.640404
    6015           0      2098.223877    -61.050758  -4140.003906     80.693703
    6016           0      2098.223877    -61.050758  -4500.003906     87.024673
    6017           0      2098.223877    -61.050758  -4860.003906     92.281647
    6018           0      2098.223877    -61.050758  -5220.003906     96.863754
    6019           0      2098.223877    -61.050758  -5580.003906    100.494156
    6020           0      2098.223877    -61.050758  -5940.003418    103.521568
    6021           0      2098.223877    -61.050758  -6300.003906    105.725975
    6022           0      2098.223877    -61.050758  -6660.003906    107.378868
    6023           0      2098.223877    -61.050758  -7020.003906    108.316826
    6024           0      2098.223877    -61.050758  -7380.003906    108.734032
    6025           0      2098.223877    -61.050758  -7740.003906    108.524780
    6026           0      2098.223877    -61.050758  -8100.003418    107.817566
    6027           0      2098.223877    -61.050758  -8460.003906    106.566780
    6028           0      2098.223877    -61.050758  -8820.003906    104.859161
    6029           0      2098.223877    -61.050758  -9180.003906    102.717117
    6030           0      2098.223877    -61.050758  -9540.003906    100.232613
    6031           0      2098.223877    -61.050758  -9900.003906     97.517952
    6032           0      2098.223877    -61.050758  -10260.00390     94.766960
    6033           0      2098.223877    -61.050758  -10620.00390     92.230011
    6034           0      2098.223877    -61.050758  -10980.00390     90.390465
    6035           0      2098.223877    -61.050758  -11340.00390     89.705704
    6036           0      2098.223877    -61.050758  -11700.00390     91.165611
    6037           0      2098.223877    -61.050758  -12060.00390     95.428383
    6038           0      2098.223877    -61.050758  -12420.00390    103.672470
    6039           0      2098.223877    -61.050758  -12780.00390    116.711952
    6040           0      2098.223877    -61.050758  -13140.00390    134.340729
    6041           0      2098.223877    -61.050758  -13500.00390    156.451584
    6042           0      2098.223877    -61.050758  -13860.00390    170.059998
    6043           0      2098.223877    -61.051079  -14220.00293    174.477417
    6044           0      2098.223633     61.052742   -180.003326    116.028709
    6045           0      2098.223633     61.052742   -540.003357    111.077675
    6046           0      2098.223633     61.052742   -900.003418     98.287659
    6047           0      2098.223633     61.052742  -1260.003418     78.442299
    6048           0      2098.223633     61.052742  -1620.003418     58.601128
    6049           0      2098.223633     61.052742  -1980.003540     41.279045
    6050           0      2098.223633     61.052746  -2340.003906     28.657421
    6051           0      2098.223633     61.052750  -2700.003906     24.507713
    6052           0      2098.223633     61.052750  -3060.003418     28.658539
    6053           0      2098.223633     61.052750  -3420.003418     36.687679
    6054           0      2098.223633     61.052750  -3780.003418     45.334789
    6055           0      2098.223633     61.052750  -4140.003906     53.450058
    6056           0      2098.223633     61.052750  -4500.003906     60.730450
    6057           0      2098.223633     61.052750  -4860.003906     67.067749
    6058           0      2098.223633     61.052750  -5220.003906     72.437622
    6059           0      2098.223633     61.052750  -5580.003906     76.910103
    6060           0      2098.223633     61.052750  -5940.003906     80.458321
    6061           0      2098.223633     61.052750  -6300.003906     83.198051
    6062           0      2098.223633     61.052750  -6660.003906     85.086853
    6063           0      2098.223633     61.052750  -7020.003906     86.249069
    6064           0      2098.223633     61.052750  -7380.003906     86.643105
    6065           0      2098.223633     61.052757  -7740.003906     86.393600
    6066           0      2098.223633     61.052757  -8100.003906     85.481491
    6067           0      2098.223633     61.052757  -8460.003906     84.043755
    6068           0      2098.223633     61.052757  -8820.003906     82.117218
    6069           0      2098.223633     61.052757  -9180.003906     79.888023
    6070           0      2098.223633     61.052757  -9540.003906     77.514206
    6071           0      2098.223633     61.052757  -9900.003906     75.299225
    6072           0      2098.223633     61.052757  -10260.00390     73.641716
    6073           0      2098.223633     61.052757  -10620.00390     73.014465
    6074           0      2098.223633     61.052757  -10980.00390     74.155960
    6075           0      2098.223633     61.052757  -11340.00390     77.494812
    6076           0      2098.223633     61.052757  -11700.00390     83.904953
    6077           0      2098.223633     61.052757  -12060.00390     93.245117
    6078           0      2098.223633     61.052757  -12420.00390    105.955124
    6079           0      2098.223633     61.052757  -12780.00390    121.727005
    6080           0      2098.223633     61.052757  -13140.00390    138.270370
    6081           0      2098.223633     61.052757  -13500.00390    154.601501
    6082           0      2098.223633     61.052757  -13860.00390    164.733826
    6083           0      2098.223633     61.052429  -14220.00293    168.920273
    6084           0      2091.123779    182.949707   -180.003326     99.528786
    6085           0      2091.123779    182.949707   -540.003357     96.544777
    6086           0      2091.123779    182.949707   -900.003418     88.296150
    6087           0      2091.123779    182.949722  -1260.003418     75.842789
    6088           0      2091.123779    182.949738  -1620.003418     61.481628
    6089           0      2091.123779    182.949738  -1980.003418     46.266441
    6090           0      2091.123779    182.949738  -2340.003418     31.880260
    6091           0      2091.123779    182.949738  -2700.003418     19.246803
    6092           0      2091.123779    182.949738  -3060.003418      9.858280
    6093           0      2091.123779    182.949738  -3420.003418     10.972274
    6094           0      2091.123779    182.949738  -3780.003662     18.845598
    6095           0      2091.123779    182.949738  -4140.003418     27.011412
    6096           0      2091.123779    182.949738  -4500.003906     34.461796
    6097           0      2091.123779    182.949738  -4860.003906     40.955906
    6098           0      2091.123779    182.949738  -5220.003906     46.516605
    6099           0      2091.123779    182.949738  -5580.003418     51.119041
    6100           0      2091.123779    182.949753  -5940.003418     54.835464
    6101           0      2091.123779    182.949753  -6300.003906     57.662930
    6102           0      2091.123779    182.949753  -6660.003906     59.689198
    6103           0      2091.123779    182.949753  -7020.003906     60.917942
    6104           0      2091.123779    182.949753  -7380.003418     61.458645
    6105           0      2091.123779    182.949768  -7740.003906     61.336594
    6106           0      2091.123779    182.949768  -8100.003906     60.703907
    6107           0      2091.123779    182.949768  -8460.003906     59.646305
    6108           0      2091.123779    182.949768  -8820.003906     58.403355
    6109           0      2091.123779    182.949768  -9180.003906     57.189671
    6110           0      2091.123779    182.949768  -9540.002930     56.399075
    6111           0      2091.123779    182.949768  -9900.003906     56.428329
    6112           0      2091.123779    182.949768  -10260.00390     57.808819
    6113           0      2091.123779    182.949768  -10620.00390     60.949001
    6114           0      2091.123779    182.949768  -10980.00390     66.246025
    6115           0      2091.123779    182.949783  -11340.00390     73.726593
    6116           0      2091.123779    182.949783  -11700.00390     83.500481
    6117           0      2091.123779    182.949799  -12060.00390     95.132164
    6118           0      2091.123779    182.949799  -12420.00390    108.442215
    6119           0      2091.123779    182.949799  -12780.00390    122.766670
    6120           0      2091.123779    182.949799  -13140.00390    135.354263
    6121           0      2091.123779    182.949799  -13500.00390    147.354111
    6122           0      2091.123779    182.949799  -13860.00390    156.256454
    6123           0      2091.123779    182.949753  -14220.00293    159.978226
    6124           0      2076.948242    304.228210   -180.003326     81.799545
    6125           0      2076.948242    304.228210   -540.003357     80.020752
    6126           0      2076.948242    304.228210   -900.003418     74.326385
    6127           0      2076.948242    304.228210  -1260.003418     67.013008
    6128           0      2076.948242    304.228210  -1620.003418     58.099705
    6129           0      2076.948242    304.228210  -1980.003540     47.664993
    6130           0      2076.948242    304.228210  -2340.003662     37.070175
    6131           0      2076.948242    304.228210  -2700.003662     27.168682
    6132           0      2076.948242    304.228210  -3060.003418     18.083569
    6133           0      2076.948242    304.228210  -3420.003906     10.796048
    6134           0      2076.948242    304.228210  -3780.003906      7.990042
    6135           0      2076.948242    304.228210  -4140.003906     11.423244
    6136           0      2076.948242    304.228210  -4500.003906     16.745010
    6137           0      2076.948242    304.228210  -4860.003906     21.920267
    6138           0      2076.948242    304.228210  -5220.003906     26.520231
    6139           0      2076.948242    304.228210  -5580.003906     30.431461
    6140           0      2076.948242    304.228241  -5940.003418     33.625916
    6141           0      2076.948242    304.228271  -6300.003906     36.129181
    6142           0      2076.948242    304.228271  -6660.003906     37.966034
    6143           0      2076.948242    304.228271  -7020.003906     39.214653
    6144           0      2076.948242    304.228271  -7380.003906     39.943729
    6145           0      2076.948242    304.228271  -7740.003906     40.296146
    6146           0      2076.948242    304.228271  -8100.003418     40.418121
    6147           0      2076.948242    304.228271  -8460.003906     40.554054
    6148           0      2076.948242    304.228271  -8820.003906     40.969307
    6149           0      2076.948242    304.228271  -9180.003906     42.012825
    6150           0      2076.948242    304.228271  -9540.003906     44.019867
    6151           0      2076.948242    304.228271  -9900.003906     47.285328
    6152           0      2076.948242    304.228271  -10260.00390     52.012871
    6153           0      2076.948242    304.228271  -10620.00390     58.232613
    6154           0      2076.948242    304.228271  -10980.00390     65.961304
    6155           0      2076.948242    304.228271  -11340.00390     74.973969
    6156           0      2076.948242    304.228271  -11700.00390     85.217583
    6157           0      2076.948242    304.228271  -12060.00390     96.222282
    6158           0      2076.948242    304.228271  -12420.00390    107.727829
    6159           0      2076.948242    304.228271  -12780.00390    118.840775
    6160           0      2076.948242    304.228271  -13140.00390    128.075226
    6161           0      2076.948242    304.228271  -13500.00390    137.444336
    6162           0      2076.948242    304.228271  -13860.00390    145.801315
    6163           0      2076.948242    304.228241  -14220.00293    148.625336
    6164           0      2055.745117    424.477325   -180.003326     63.913967
    6165           0      2055.745117    424.477325   -540.003357     63.171249
    6166           0      2055.745117    424.477325   -900.003418     59.208698
    6167           0      2055.745117    424.477325  -1260.003418     55.243713
    6168           0      2055.745117    424.477325  -1620.003418     50.444408
    6169           0      2055.745117    424.477325  -1980.003540     44.553673
    6170           0      2055.745117    424.477325  -2340.003906     38.294018
    6171           0      2055.745117    424.477325  -2700.003906     32.663532
    6172           0      2055.745117    424.477325  -3060.003418     27.895134
    6173           0      2055.745117    424.477325  -3420.003418     24.368504
    6174           0      2055.745117    424.477325  -3780.003418     22.227942
    6175           0      2055.745117    424.477325  -4140.003906     21.485310
    6176           0      2055.745117    424.477325  -4500.003906     21.890236
    6177           0      2055.745117    424.477325  -4860.003906     23.041851
    6178           0      2055.745117    424.477325  -5220.003906     24.552153
    6179           0      2055.745117    424.477325  -5580.003906     26.142595
    6180           0      2055.745117    424.477325  -5940.003906     27.633972
    6181           0      2055.745117    424.477325  -6300.003906     28.942890
    6182           0      2055.745117    424.477325  -6660.003906     30.046543
    6183           0      2055.745117    424.477325  -7020.003906     30.978189
    6184           0      2055.745117    424.477325  -7380.003906     31.821892
    6185           0      2055.745117    424.477325  -7740.003906     32.701096
    6186           0      2055.745117    424.477325  -8100.003906     33.788239
    6187           0      2055.745117    424.477325  -8460.003906     35.274052
    6188           0      2055.745117    424.477325  -8820.003906     37.364403
    6189           0      2055.745117    424.477325  -9180.003906     40.235786
    6190           0      2055.745117    424.477325  -9540.003906     44.017601
    6191           0      2055.745117    424.477325  -9900.003906     48.779015
    6192           0      2055.745117    424.477325  -10260.00390     54.523155
    6193           0      2055.745117    424.477325  -10620.00390     61.203888
    6194           0      2055.745117    424.477325  -10980.00390     68.746109
    6195           0      2055.745117    424.477325  -11340.00390     76.982925
    6196           0      2055.745117    424.477325  -11700.00390     85.796371
    6197           0      2055.745117    424.477325  -12060.00390     94.797768
    6198           0      2055.745117    424.477325  -12420.00390    103.663574
    6199           0      2055.745117    424.477325  -12780.00390    111.786789
    6200           0      2055.745117    424.477325  -13140.00390    118.857018
    6201           0      2055.745117    424.477325  -13500.00390    126.606956
    6202           0      2055.745117    424.477325  -13860.00390    134.269501
    6203           0      2055.745117    424.477325  -14220.00293    136.060486
    6204           0      2027.586060    543.290161   -180.003326     46.999229
    6205           0      2027.586060    543.290161   -540.003357     47.274654
    6206           0      2027.586060    543.290161   -900.003418     44.816124
    6207           0      2027.586060    543.290161  -1260.003418     43.118755
    6208           0      2027.586060    543.290161  -1620.003418     41.143051
    6209           0      2027.586060    543.290161  -1980.003418     38.822681
    6210           0      2027.586060    543.290161  -2340.003418     36.169186
    6211           0      2027.586060    543.290161  -2700.003418     34.090855
    6212           0      2027.586060    543.290161  -3060.003418     32.738201
    6213           0      2027.586060    543.290161  -3420.003418     32.173138
    6214           0      2027.586060    543.290161  -3780.003662     32.198650
    6215           0      2027.586060    543.290161  -4140.003418     32.626919
    6216           0      2027.586060    543.290222  -4500.003906     33.287258
    6217           0      2027.586060    543.290222  -4860.003906     34.051025
    6218           0      2027.586060    543.290222  -5220.003906     34.828747
    6219           0      2027.586060    543.290222  -5580.003418     35.569107
    6220           0      2027.586060    543.290222  -5940.003418     36.244659
    6221           0      2027.586060    543.290222  -6300.003906     36.861229
    6222           0      2027.586060    543.290222  -6660.003906     37.443054
    6223           0      2027.586060    543.290222  -7020.003906     38.044621
    6224           0      2027.586060    543.290222  -7380.003418     38.738419
    6225           0      2027.586060    543.290222  -7740.003906     39.622227
    6226           0      2027.586060    543.290222  -8100.003906     40.804634
    6227           0      2027.586060    543.290222  -8460.003906     42.404613
    6228           0      2027.586060    543.290222  -8820.003906     44.530014
    6229           0      2027.586060    543.290222  -9180.003906     47.275940
    6230           0      2027.586060    543.290222  -9540.002930     50.700188
    6231           0      2027.586060    543.290283  -9900.003906     54.835125
    6232           0      2027.586060    543.290283  -10260.00390     59.666489
    6233           0      2027.586060    543.290283  -10620.00390     65.151283
    6234           0      2027.586060    543.290283  -10980.00390     71.214424
    6235           0      2027.586060    543.290283  -11340.00390     77.702309
    6236           0      2027.586060    543.290283  -11700.00390     84.495079
    6237           0      2027.586060    543.290283  -12060.00390     91.206718
    6238           0      2027.586060    543.290283  -12420.00390     97.680717
    6239           0      2027.586060    543.290283  -12780.00390    103.629837
    6240           0      2027.586060    543.290283  -13140.00390    109.417320
    6241           0      2027.586060    543.290283  -13500.00390    115.853516
    6242           0      2027.586060    543.290283  -13860.00390    122.618980
    6243           0      2027.586060    543.290222  -14220.00293    123.345322
    6244           0      1992.566162    660.264648   -180.003326     32.321144
    6245           0      1992.566162    660.264648   -540.003357     33.514038
    6246           0      1992.566162    660.264648   -900.003418     32.506908
    6247           0      1992.566162    660.264709  -1260.003418     32.475433
    6248           0      1992.566162    660.264709  -1620.003418     32.352524
    6249           0      1992.566162    660.264709  -1980.003540     32.503624
    6250           0      1992.566162    660.264709  -2340.003662     32.464371
    6251           0      1992.566162    660.264709  -2700.003662     32.881386
    6252           0      1992.566162    660.264709  -3060.003418     33.832745
    6253           0      1992.566162    660.264709  -3420.003906     35.327541
    6254           0      1992.566162    660.264709  -3780.003906     37.115189
    6255           0      1992.566162    660.264709  -4140.003906     38.983093
    6256           0      1992.566162    660.264709  -4500.003906     40.774136
    6257           0      1992.566162    660.264709  -4860.003906     42.395584
    6258           0      1992.566162    660.264709  -5220.003906     43.807114
    6259           0      1992.566162    660.264709  -5580.003906     45.001221
    6260           0      1992.566162    660.264709  -5940.003418     45.995476
    6261           0      1992.566162    660.264709  -6300.003906     46.823872
    6262           0      1992.566162    660.264709  -6660.003906     47.533730
    6263           0      1992.566162    660.264709  -7020.003906     48.184124
    6264           0      1992.566162    660.264709  -7380.003906     48.843884
    6265           0      1992.566162    660.264709  -7740.003906     49.591541
    6266           0      1992.566162    660.264709  -8100.003418     50.510773
    6267           0      1992.566162    660.264709  -8460.003906     51.690079
    6268           0      1992.566162    660.264709  -8820.003906     53.212074
    6269           0      1992.566162    660.264709  -9180.003906     55.155178
    6270           0      1992.566162    660.264709  -9540.003906     57.574486
    6271           0      1992.566162    660.264709  -9900.003906     60.512081
    6272           0      1992.566162    660.264709  -10260.00390     63.970276
    6273           0      1992.566162    660.264709  -10620.00390     67.927368
    6274           0      1992.566162    660.264709  -10980.00390     72.319084
    6275           0      1992.566162    660.264709  -11340.00390     77.012619
    6276           0      1992.566162    660.264709  -11700.00390     81.891479
    6277           0      1992.566162    660.264709  -12060.00390     86.641922
    6278           0      1992.566162    660.264709  -12420.00390     91.341110
    6279           0      1992.566162    660.264709  -12780.00390     95.873489
    6280           0      1992.566162    660.264709  -13140.00390    100.747940
    6281           0      1992.566162    660.264709  -13500.00390    105.931206
    6282           0      1992.566162    660.264709  -13860.00390    111.699615
    6283           0      1992.566162    660.264709  -14220.00293    111.438240
    6284           0      1950.804199    775.005005   -180.003326     21.602156
    6285           0      1950.804199    775.005005   -540.003357     23.290697
    6286           0      1950.804199    775.005005   -900.003418     23.499062
    6287           0      1950.804199    775.005005  -1260.003418     24.559822
    6288           0      1950.804199    775.005005  -1620.003418     25.535173
    6289           0      1950.804199    775.005005  -1980.003540     27.060032
    6290           0      1950.804199    775.005005  -2340.003906     28.586096
    6291           0      1950.804199    775.005005  -2700.003906     30.480247
    6292           0      1950.804199    775.005005  -3060.003418     32.731834
    6293           0      1950.804199    775.005005  -3420.003418     35.391972
    6294           0      1950.804199    775.005005  -3780.003418     38.263069
    6295           0      1950.804199    775.005005  -4140.003906     41.154968
    6296           0      1950.804199    775.005005  -4500.003906     43.907204
    6297           0      1950.804199    775.005005  -4860.003906     46.413708
    6298           0      1950.804199    775.005005  -5220.003906     48.621822
    6299           0      1950.804199    775.005005  -5580.003906     50.515274
    6300           0      1950.804199    775.005005  -5940.003906     52.105526
    6301           0      1950.804199    775.005005  -6300.003906     53.421284
    6302           0      1950.804199    775.005005  -6660.003906     54.504974
    6303           0      1950.804199    775.005005  -7020.003906     55.408737
    6304           0      1950.804199    775.005005  -7380.003906     56.192772
    6305           0      1950.804199    775.005005  -7740.003906     56.924366
    6306           0      1950.804199    775.005005  -8100.003906     57.675674
    6307           0      1950.804199    775.005005  -8460.003906     58.523556
    6308           0      1950.804199    775.005005  -8820.003906     59.543957
    6309           0      1950.804199    775.005005  -9180.003906     60.812073
    6310           0      1950.804199    775.005005  -9540.003906     62.389824
    6311           0      1950.804199    775.005005  -9900.003906     64.328804
    6312           0      1950.804199    775.005005  -10260.00390     66.648720
    6313           0      1950.804199    775.005005  -10620.00390     69.341278
    6314           0      1950.804199    775.005005  -10980.00390     72.359184
    6315           0      1950.804199    775.005005  -11340.00390     75.589371
    6316           0      1950.804199    775.005005  -11700.00390     78.960808
    6317           0      1950.804199    775.005005  -12060.00390     82.281303
    6318           0      1950.804199    775.005005  -12420.00390     85.805771
    6319           0      1950.804199    775.005005  -12780.00390     89.367348
    6320           0      1950.804199    775.005005  -13140.00390     93.424706
    6321           0      1950.804199    775.005005  -13500.00390     97.415413
    6322           0      1950.804199    775.005005  -13860.00390    102.228088
    6323           0      1950.804199    775.005005  -14220.00293    101.090553
    6324           0      1902.441162    887.123047   -180.003326     17.142159
    6325           0      1902.441162    887.123047   -540.003357     18.190004
    6326           0      1902.441162    887.123047   -900.003418     18.799200
    6327           0      1902.441162    887.123047  -1260.003418     19.959663
    6328           0      1902.441162    887.123047  -1620.003418     21.248989
    6329           0      1902.441162    887.123047  -1980.003418     23.124092
    6330           0      1902.441162    887.123047  -2340.003418     25.232597
    6331           0      1902.441162    887.123047  -2700.003418     27.746878
    6332           0      1902.441162    887.123047  -3060.003418     30.558804
    6333           0      1902.441162    887.123047  -3420.003418     33.709488
    6334           0      1902.441162    887.123047  -3780.003662     37.063293
    6335           0      1902.441040    887.123047  -4140.003418     40.475883
    6336           0      1902.441040    887.123047  -4500.003906     43.795265
    6337           0      1902.441040    887.123047  -4860.003906     46.901016
    6338           0      1902.441040    887.123047  -5220.003906     49.719284
    6339           0      1902.441040    887.123047  -5580.003418     52.207851
    6340           0      1902.441040    887.123047  -5940.003418     54.355869
    6341           0      1902.441040    887.123047  -6300.003906     56.172878
    6342           0      1902.441040    887.123047  -6660.003906     57.685734
    6343           0      1902.441040    887.123047  -7020.003906     58.933620
    6344           0      1902.441040    887.123047  -7380.003418     59.965992
    6345           0      1902.441040    887.123047  -7740.003906     60.840706
    6346           0      1902.441040    887.123047  -8100.003906     61.622196
    6347           0      1902.441040    887.123047  -8460.003906     62.380337
    6348           0      1902.441040    887.123047  -8820.003906     63.186504
    6349           0      1902.441040    887.123108  -9180.003906     64.111671
    6350           0      1902.441040    887.123108  -9540.002930     65.217232
    6351           0      1902.441040    887.123108  -9900.003906     66.552933
    6352           0      1902.441040    887.123108  -10260.00390     68.141167
    6353           0      1902.441040    887.123108  -10620.00390     69.976982
    6354           0      1902.441040    887.123108  -10980.00390     72.027596
    6355           0      1902.441040    887.123108  -11340.00390     74.216721
    6356           0      1902.441040    887.123108  -11700.00390     76.548630
    6357           0      1902.441040    887.123108  -12060.00390     78.944832
    6358           0      1902.441040    887.123108  -12420.00390     81.698242
    6359           0      1902.441040    887.123108  -12780.00390     84.504021
    6360           0      1902.441040    887.123108  -13140.00390     87.785439
    6361           0      1902.441040    887.123108  -13500.00390     90.738220
    6362           0      1902.441040    887.123108  -13860.00390     94.718971
    6363           0      1902.441162    887.123108  -14220.00293     92.838417
    6364           0      1847.640869    996.239258   -180.003326     18.459848
    6365           0      1847.640869    996.239258   -540.003357     17.991978
    6366           0      1847.640869    996.239258   -900.003418     17.916054
    6367           0      1847.640869    996.239258  -1260.003418     18.133963
    6368           0      1847.640869    996.239258  -1620.003418     18.987911
    6369           0      1847.640869    996.239258  -1980.003540     20.468132
    6370           0      1847.640869    996.239258  -2340.003662     22.458454
    6371           0      1847.640869    996.239258  -2700.003662     25.003521
    6372           0      1847.640869    996.239258  -3060.003418     27.930433
    6373           0      1847.640869    996.239258  -3420.003906     31.201845
    6374           0      1847.640869    996.239258  -3780.003906     34.688354
    6375           0      1847.640869    996.239258  -4140.003906     38.277451
    6376           0      1847.640869    996.239258  -4500.003906     41.833969
    6377           0      1847.640869    996.239258  -4860.003906     45.246990
    6378           0      1847.640869    996.239258  -5220.003906     48.431080
    6379           0      1847.640869    996.239258  -5580.003906     51.326668
    6380           0      1847.640869    996.239258  -5940.003418     53.902584
    6381           0      1847.640869    996.239258  -6300.003906     56.149204
    6382           0      1847.640869    996.239258  -6660.003906     58.076073
    6383           0      1847.640869    996.239258  -7020.003906     59.707607
    6384           0      1847.640869    996.239258  -7380.003906     61.080784
    6385           0      1847.640869    996.239258  -7740.003906     62.242416
    6386           0      1847.640869    996.239258  -8100.003418     63.247135
    6387           0      1847.640869    996.239258  -8460.003906     64.154587
    6388           0      1847.640869    996.239258  -8820.003906     65.026024
    6389           0      1847.640869    996.239258  -9180.003906     65.920334
    6390           0      1847.640869    996.239258  -9540.003906     66.887428
    6391           0      1847.640869    996.239258  -9900.003906     67.964409
    6392           0      1847.640869    996.239258  -10260.00390     69.167946
    6393           0      1847.640869    996.239258  -10620.00390     70.495750
    6394           0      1847.640869    996.239258  -10980.00390     71.938965
    6395           0      1847.640869    996.239258  -11340.00390     73.475555
    6396           0      1847.640869    996.239258  -11700.00390     75.178238
    6397           0      1847.640869    996.239258  -12060.00390     77.018509
    6398           0      1847.640869    996.239258  -12420.00390     79.227531
    6399           0      1847.640869    996.239258  -12780.00390     81.413658
    6400           0      1847.640869    996.239258  -13140.00390     84.014259
    6401           0      1847.640869    996.239258  -13500.00390     86.156143
    6402           0      1847.640869    996.239258  -13860.00390     89.472656
    6403           0      1847.640869    996.239258  -14220.00293     86.987099
    6404           0      1786.588867   1101.984619   -180.003326     21.356083
    6405           0      1786.588867   1101.984619   -540.003357     19.671328
    6406           0      1786.588867   1101.984619   -900.003418     18.579592
    6407           0      1786.588867   1101.984619  -1260.003418     17.567537
    6408           0      1786.588867   1101.984619  -1620.003418     17.625647
    6409           0      1786.588867   1101.984619  -1980.003540     18.407503
    6410           0      1786.588867   1101.984619  -2340.003906     19.981058
    6411           0      1786.588867   1101.984619  -2700.003906     22.297768
    6412           0      1786.588867   1101.984619  -3060.003418     25.157736
    6413           0      1786.588867   1101.984619  -3420.003418     28.436546
    6414           0      1786.588867   1101.984619  -3780.003418     31.963757
    6415           0      1786.588867   1101.984619  -4140.003906     35.616489
    6416           0      1786.588867   1101.984619  -4500.003906     39.274105
    6417           0      1786.588867   1101.984619  -4860.003906     42.839710
    6418           0      1786.588867   1101.984619  -5220.003906     46.232933
    6419           0      1786.588867   1101.984619  -5580.003906     49.394154
    6420           0      1786.588867   1101.984619  -5940.003906     52.283909
    6421           0      1786.588867   1101.984619  -6300.003906     54.882359
    6422           0      1786.588867   1101.984619  -6660.003906     57.185986
    6423           0      1786.588867   1101.984619  -7020.003906     59.206474
    6424           0      1786.588867   1101.984619  -7380.003906     60.967136
    6425           0      1786.588867   1101.984619  -7740.003906     62.501232
    6426           0      1786.588867   1101.984619  -8100.003906     63.848621
    6427           0      1786.588867   1101.984619  -8460.003906     65.053108
    6428           0      1786.588867   1101.984619  -8820.003906     66.158623
    6429           0      1786.588867   1101.984619  -9180.003906     67.205856
    6430           0      1786.588867   1101.984619  -9540.003906     68.227951
    6431           0      1786.588867   1101.984619  -9900.003906     69.249550
    6432           0      1786.588867   1101.984619  -10260.00390     70.285942
    6433           0      1786.588867   1101.984619  -10620.00390     71.349228
    6434           0      1786.588867   1101.984619  -10980.00390     72.464279
    6435           0      1786.588867   1101.984619  -11340.00390     73.660286
    6436           0      1786.588867   1101.984619  -11700.00390     75.034462
    6437           0      1786.588867   1101.984619  -12060.00390     76.551323
    6438           0      1786.588867   1101.984619  -12420.00390     78.360840
    6439           0      1786.588867   1101.984619  -12780.00390     80.078468
    6440           0      1786.588867   1101.984619  -13140.00390     82.152054
    6441           0      1786.588867   1101.984619  -13500.00390     83.739990
    6442           0      1786.588867   1101.984619  -13860.00390     86.577087
    6443           0      1786.588867   1101.984619  -14220.00293     83.626442
    6444           0      1719.491455   1204.001221   -180.003326     23.289383
    6445           0      1719.491455   1204.001221   -540.003357     20.848900
    6446           0      1719.491455   1204.001221   -900.003418     18.923267
    6447           0      1719.491455   1204.001221  -1260.003418     16.928007
    6448           0      1719.491455   1204.001221  -1620.003418     16.217617
    6449           0      1719.491455   1204.001221  -1980.003418     16.352392
    6450           0      1719.491455   1204.001221  -2340.003418     17.536001
    6451           0      1719.491455   1204.001221  -2700.003418     19.651714
    6452           0      1719.491455   1204.001221  -3060.003418     22.468914
    6453           0      1719.491455   1204.001221  -3420.003418     25.799557
    6454           0      1719.491455   1204.001221  -3780.003662     29.427574
    6455           0      1719.491455   1204.001221  -4140.003418     33.198929
    6456           0      1719.491455   1204.001221  -4500.003906     36.989052
    6457           0      1719.491455   1204.001221  -4860.003906     40.706608
    6458           0      1719.491455   1204.001221  -5220.003906     44.280907
    6459           0      1719.491455   1204.001221  -5580.003418     47.661335
    6460           0      1719.491455   1204.001221  -5940.003418     50.811348
    6461           0      1719.491455   1204.001221  -6300.003906     53.709888
    6462           0      1719.491455   1204.001221  -6660.003906     56.347580
    6463           0      1719.491455   1204.001221  -7020.003906     58.726860
    6464           0      1719.491455   1204.001221  -7380.003418     60.858952
    6465           0      1719.491455   1204.001221  -7740.003906     62.762520
    6466           0      1719.491455   1204.001221  -8100.003906     64.460983
    6467           0      1719.491455   1204.001221  -8460.003906     65.980194
    6468           0      1719.491455   1204.001221  -8820.003906     67.346390
    6469           0      1719.491455   1204.001221  -9180.003906     68.584023
    6470           0      1719.491455   1204.001221  -9540.002930     69.715714
    6471           0      1719.491455   1204.001221  -9900.003906     70.763565
    6472           0      1719.491455   1204.001221  -10260.00390     71.753426
    6473           0      1719.491333   1204.001221  -10620.00390     72.720497
    6474           0      1719.491333   1204.001221  -10980.00390     73.718979
    6475           0      1719.491333   1204.001221  -11340.00390     74.801598
    6476           0      1719.491333   1204.001221  -11700.00390     76.045570
    6477           0      1719.491333   1204.001221  -12060.00390     77.393387
    6478           0      1719.491333   1204.001221  -12420.00390     78.939484
    6479           0      1719.491333   1204.001221  -12780.00390     80.369667
    6480           0      1719.491333   1204.001221  -13140.00390     82.098984
    6481           0      1719.491333   1204.001221  -13500.00390     83.387939
    6482           0      1719.491333   1204.001221  -13860.00390     85.933792
    6483           0      1719.491333   1204.001221  -14220.00293     82.654449
    6484           0      1646.575928   1301.943604   -180.003326     23.610046
    6485           0      1646.575928   1301.943604   -540.003357     20.728792
    6486           0      1646.575928   1301.943604   -900.003418     18.228914
    6487           0      1646.575928   1301.943604  -1260.003418     15.599560
    6488           0      1646.575928   1301.943604  -1620.003418     14.323276
    6489           0      1646.575928   1301.943604  -1980.003540     14.049278
    6490           0      1646.575928   1301.943604  -2340.003662     15.069866
    6491           0      1646.575928   1301.943604  -2700.003662     17.196465
    6492           0      1646.575928   1301.943604  -3060.003418     20.122299
    6493           0      1646.575928   1301.943604  -3420.003906     23.607079
    6494           0      1646.575928   1301.943604  -3780.003906     27.419508
    6495           0      1646.575928   1301.943604  -4140.003906     31.390331
    6496           0      1646.575928   1301.943604  -4500.003906     35.387562
    6497           0      1646.575928   1301.943604  -4860.003906     39.317017
    6498           0      1646.575928   1301.943604  -5220.003906     43.111320
    6499           0      1646.575928   1301.943604  -5580.003906     46.724426
    6500           0      1646.575928   1301.943604  -5940.003418     50.124367
    6501           0      1646.575928   1301.943604  -6300.003906     53.291393
    6502           0      1646.575928   1301.943604  -6660.003906     56.214489
    6503           0      1646.575928   1301.943604  -7020.003906     58.890568
    6504           0      1646.575928   1301.943604  -7380.003906     61.322399
    6505           0      1646.575928   1301.943604  -7740.003906     63.517570
    6506           0      1646.575928   1301.943604  -8100.003418     65.487289
    6507           0      1646.575928   1301.943604  -8460.003906     67.245186
    6508           0      1646.575928   1301.943604  -8820.003906     68.807411
    6509           0      1646.575928   1301.943604  -9180.003906     70.192734
    6510           0      1646.575928   1301.943604  -9540.003906     71.424789
    6511           0      1646.575928   1301.943604  -9900.003906     72.534874
    6512           0      1646.575928   1301.943726  -10260.00390     73.565140
    6513           0      1646.575928   1301.943726  -10620.00390     74.570045
    6514           0      1646.575928   1301.943726  -10980.00390     75.612396
    6515           0      1646.575928   1301.943726  -11340.00390     76.738724
    6516           0      1646.575928   1301.943726  -11700.00390     77.986877
    6517           0      1646.575928   1301.943726  -12060.00390     79.295151
    6518           0      1646.575928   1301.943726  -12420.00390     80.725502
    6519           0      1646.575928   1301.943726  -12780.00390     82.060387
    6520           0      1646.575928   1301.943726  -13140.00390     83.629417
    6521           0      1646.575928   1301.943726  -13500.00390     84.856064
    6522           0      1646.575928   1301.943726  -13860.00390     87.291168
    6523           0      1646.575928   1301.943604  -14220.00293     83.812157
    6524           0      1568.088867   1395.480957   -180.003326     22.405989
    6525           0      1568.088867   1395.480957   -540.003357     19.296686
    6526           0      1568.088867   1395.480957   -900.003418     16.449118
    6527           0      1568.088867   1395.480957  -1260.003418     13.491252
    6528           0      1568.088867   1395.480957  -1620.003418     11.899510
    6529           0      1568.088867   1395.480957  -1980.003540     11.548824
    6530           0      1568.088867   1395.480957  -2340.003906     12.752820
    6531           0      1568.088867   1395.480957  -2700.003906     15.176012
    6532           0      1568.088867   1395.480957  -3060.003418     18.379721
    6533           0      1568.088867   1395.480957  -3420.003418     22.087250
    6534           0      1568.088867   1395.480957  -3780.003418     26.097496
    6535           0      1568.088867   1395.480957  -4140.003906     30.263752
    6536           0      1568.088867   1395.480957  -4500.003906     34.466663
    6537           0      1568.088867   1395.480957  -4860.003906     38.612164
    6538           0      1568.088867   1395.480957  -5220.003906     42.630470
    6539           0      1568.088867   1395.480957  -5580.003906     46.471889
    6540           0      1568.088867   1395.480957  -5940.003906     50.102238
    6541           0      1568.088867   1395.480957  -6300.003906     53.499386
    6542           0      1568.088867   1395.480957  -6660.003906     56.649696
    6543           0      1568.088867   1395.480957  -7020.003906     59.546432
    6544           0      1568.088867   1395.480957  -7380.003906     62.187901
    6545           0      1568.088867   1395.480957  -7740.003906     64.576897
    6546           0      1568.088867   1395.480957  -8100.003906     66.720367
    6547           0      1568.088867   1395.480957  -8460.003906     68.629707
    6548           0      1568.088867   1395.480957  -8820.003906     70.321999
    6549           0      1568.088867   1395.480957  -9180.003906     71.821457
    6550           0      1568.088867   1395.480957  -9540.003906     73.161591
    6551           0      1568.088867   1395.480957  -9900.003906     74.386772
    6552           0      1568.088867   1395.480957  -10260.00390     75.550529
    6553           0      1568.088867   1395.480957  -10620.00390     76.711754
    6554           0      1568.088867   1395.480957  -10980.00390     77.920326
    6555           0      1568.088867   1395.480957  -11340.00390     79.202545
    6556           0      1568.088867   1395.480957  -11700.00390     80.562889
    6557           0      1568.088867   1395.480957  -12060.00390     81.957733
    6558           0      1568.088867   1395.480957  -12420.00390     83.424301
    6559           0      1568.088867   1395.480957  -12780.00390     84.844650
    6560           0      1568.088867   1395.480957  -13140.00390     86.423424
    6561           0      1568.088867   1395.480957  -13500.00390     87.794907
    6562           0      1568.088867   1395.480957  -13860.00390     90.282135
    6563           0      1568.088867   1395.480957  -14220.00293     86.724976
    6564           0      1484.295898   1484.296265   -180.003326     20.041119
    6565           0      1484.295898   1484.296265   -540.003357     16.853268
    6566           0      1484.295898   1484.296265   -900.003418     13.833429
    6567           0      1484.295898   1484.296265  -1260.003418     10.781584
    6568           0      1484.295898   1484.296265  -1620.003418      9.135056
    6569           0      1484.295898   1484.296265  -1980.003418      9.118378
    6570           0      1484.295898   1484.296265  -2340.003418     10.899752
    6571           0      1484.295898   1484.296265  -2700.003418     13.834034
    6572           0      1484.295898   1484.296265  -3060.003418     17.378386
    6573           0      1484.295898   1484.296265  -3420.003418     21.279676
    6574           0      1484.295898   1484.296265  -3780.003662     25.407417
    6575           0      1484.295898   1484.296265  -4140.003418     29.665485
    6576           0      1484.295898   1484.296265  -4500.003906     33.969078
    6577           0      1484.295898   1484.296265  -4860.003906     38.236031
    6578           0      1484.295898   1484.296265  -5220.003906     42.396896
    6579           0      1484.295898   1484.296265  -5580.003418     46.395454
    6580           0      1484.295898   1484.296265  -5940.003418     50.189919
    6581           0      1484.295898   1484.296265  -6300.003906     53.750977
    6582           0      1484.295898   1484.296265  -6660.003906     57.059570
    6583           0      1484.295898   1484.296265  -7020.003906     60.105114
    6584           0      1484.295898   1484.296265  -7380.003418     62.884171
    6585           0      1484.295898   1484.296265  -7740.003906     65.399811
    6586           0      1484.295898   1484.296265  -8100.003906     67.661789
    6587           0      1484.295898   1484.296265  -8460.003906     69.687149
    6588           0      1484.295898   1484.296265  -8820.003906     71.501450
    6589           0      1484.295898   1484.296265  -9180.003906     73.139542
    6590           0      1484.295898   1484.296265  -9540.002930     74.645676
    6591           0      1484.295898   1484.296265  -9900.003906     76.071907
    6592           0      1484.295898   1484.296265  -10260.00390     77.471375
    6593           0      1484.295898   1484.296265  -10620.00390     78.892441
    6594           0      1484.295898   1484.296265  -10980.00390     80.362076
    6595           0      1484.295898   1484.296265  -11340.00390     81.889641
    6596           0      1484.295898   1484.296265  -11700.00390     83.461937
    6597           0      1484.295898   1484.296265  -12060.00390     85.065117
    6598           0      1484.295898   1484.296265  -12420.00390     86.709496
    6599           0      1484.295898   1484.296265  -12780.00390     88.369850
    6600           0      1484.295898   1484.296265  -13140.00390     90.105614
    6601           0      1484.295898   1484.296265  -13500.00390     91.790619
    6602           0      1484.295898   1484.296265  -13860.00390     94.469124
    6603           0      1484.295898   1484.296265  -14220.00293     90.941788
    6604           0      1395.480469   1568.089111   -180.003326     16.983782
    6605           0      1395.480469   1568.089111   -540.003357     13.821520
    6606           0      1395.480469   1568.089111   -900.003418     10.751426
    6607           0      1395.480469   1568.089111  -1260.003418      7.766901
    6608           0      1395.480469   1568.089111  -1620.003418      6.363399
    6609           0      1395.480469   1568.089111  -1980.003540      7.192977
    6610           0      1395.480469   1568.089111  -2340.003662      9.816027
    6611           0      1395.480469   1568.089111  -2700.003662     13.240648
    6612           0      1395.480469   1568.089111  -3060.003418     17.021713
    6613           0      1395.480469   1568.089111  -3420.003906     20.995811
    6614           0      1395.480469   1568.089111  -3780.003906     25.108421
    6615           0      1395.480469   1568.089111  -4140.003906     29.311672
    6616           0      1395.480469   1568.089111  -4500.003906     33.560638
    6617           0      1395.480469   1568.089111  -4860.003906     37.795174
    6618           0      1395.480469   1568.089111  -5220.003906     41.954983
    6619           0      1395.480469   1568.089111  -5580.003906     45.982662
    6620           0      1395.480469   1568.089111  -5940.003418     49.830605
    6621           0      1395.480469   1568.089111  -6300.003906     53.462200
    6622           0      1395.480469   1568.089111  -6660.003906     56.852375
    6623           0      1395.480469   1568.089111  -7020.003906     59.986881
    6624           0      1395.480469   1568.089233  -7380.003906     62.861687
    6625           0      1395.480469   1568.089233  -7740.003906     65.482506
    6626           0      1395.480469   1568.089233  -8100.003418     67.864708
    6627           0      1395.480469   1568.089233  -8460.003906     70.033325
    6628           0      1395.480469   1568.089233  -8820.003906     72.022827
    6629           0      1395.480469   1568.089233  -9180.003906     73.876106
    6630           0      1395.480469   1568.089233  -9540.003906     75.641426
    6631           0      1395.480469   1568.089233  -9900.003906     77.368393
    6632           0      1395.480469   1568.089233  -10260.00390     79.098633
    6633           0      1395.480469   1568.089233  -10620.00390     80.863167
    6634           0      1395.480469   1568.089233  -10980.00390     82.668694
    6635           0      1395.480469   1568.089233  -11340.00390     84.518898
    6636           0      1395.480469   1568.089233  -11700.00390     86.395226
    6637           0      1395.480469   1568.089233  -12060.00390     88.314110
    6638           0      1395.480469   1568.089233  -12420.00390     90.254593
    6639           0      1395.480469   1568.089233  -12780.00390     92.275002
    6640           0      1395.480469   1568.089233  -13140.00390     94.285416
    6641           0      1395.480469   1568.089233  -13500.00390     96.408058
    6642           0      1395.480469   1568.089233  -13860.00390     99.387482
    6643           0      1395.480469   1568.089111  -14220.00293     95.978333
    6644           0      1301.943237   1646.576172   -180.003326     13.729706
    6645           0      1301.943237   1646.576172   -540.003357     10.666516
    6646           0      1301.943237   1646.576172   -900.003418      7.622334
    6647           0      1301.943237   1646.576172  -1260.003418      4.806074
    6648           0      1301.943237   1646.576172  -1620.003418      4.130098
    6649           0      1301.943237   1646.576172  -1980.003540      6.260992
    6650           0      1301.943237   1646.576172  -2340.003906      9.562613
    6651           0      1301.943237   1646.576172  -2700.003906     13.211085
    6652           0      1301.943237   1646.576172  -3060.003418     17.024309
    6653           0      1301.943237   1646.576172  -3420.003418     20.918707
    6654           0      1301.943237   1646.576172  -3780.003418     24.885883
    6655           0      1301.943237   1646.576172  -4140.003906     28.903990
    6656           0      1301.943237   1646.576172  -4500.003906     32.957470
    6657           0      1301.943237   1646.576172  -4860.003906     37.010147
    6658           0      1301.943237   1646.576172  -5220.003906     41.018948
    6659           0      1301.943237   1646.576172  -5580.003906     44.934898
    6660           0      1301.943237   1646.576172  -5940.003906     48.712559
    6661           0      1301.943237   1646.576172  -6300.003906     52.313713
    6662           0      1301.943237   1646.576172  -6660.003906     55.710762
    6663           0      1301.943237   1646.576172  -7020.003906     58.887810
    6664           0      1301.943237   1646.576172  -7380.003906     61.841141
    6665           0      1301.943237   1646.576172  -7740.003906     64.578926
    6666           0      1301.943237   1646.576172  -8100.003906     67.120651
    6667           0      1301.943237   1646.576172  -8460.003906     69.495995
    6668           0      1301.943237   1646.576172  -8820.003906     71.742668
    6669           0      1301.943237   1646.576172  -9180.003906     73.903465
    6670           0      1301.943237   1646.576172  -9540.003906     76.020981
    6671           0      1301.943237   1646.576172  -9900.003906     78.133293
    6672           0      1301.943237   1646.576172  -10260.00390     80.265503
    6673           0      1301.943237   1646.576172  -10620.00390     82.433029
    6674           0      1301.943237   1646.576172  -10980.00390     84.631516
    6675           0      1301.943237   1646.576172  -11340.00390     86.868050
    6676           0      1301.943237   1646.576172  -11700.00390     89.124344
    6677           0      1301.943237   1646.576172  -12060.00390     91.440422
    6678           0      1301.943237   1646.576172  -12420.00390     93.763702
    6679           0      1301.943237   1646.576172  -12780.00390     96.224281
    6680           0      1301.943237   1646.576172  -13140.00390     98.592964
    6681           0      1301.943237   1646.576172  -13500.00390    101.229691
    6682           0      1301.943237   1646.576172  -13860.00390    104.584373
    6683           0      1301.943237   1646.576172  -14220.00293    101.358856
    6684           0      1204.000732   1719.491699   -180.003326     10.767500
    6685           0      1204.000732   1719.491699   -540.003357      7.880846
    6686           0      1204.000732   1719.491699   -900.003418      4.952287
    6687           0      1204.000732   1719.491699  -1260.003418      2.502835
    6688           0      1204.000732   1719.491699  -1620.003418      3.405262
    6689           0      1204.000732   1719.491699  -1980.003418      6.422961
    6690           0      1204.000732   1719.491699  -2340.003418      9.868794
    6691           0      1204.000732   1719.491699  -2700.003418     13.426245
    6692           0      1204.000732   1719.491699  -3060.003418     17.075439
    6693           0      1204.000732   1719.491699  -3420.003418     20.758415
    6694           0      1204.000732   1719.491699  -3780.003662     24.480639
    6695           0      1204.000732   1719.491699  -4140.003418     28.225441
    6696           0      1204.000732   1719.491699  -4500.003906     31.991129
    6697           0      1204.000732   1719.491699  -4860.003906     35.759800
    6698           0      1204.000732   1719.491699  -5220.003906     39.507977
    6699           0      1204.000732   1719.491699  -5580.003418     43.202728
    6700           0      1204.000732   1719.491699  -5940.003418     46.809937
    6701           0      1204.000732   1719.491699  -6300.003906     50.298084
    6702           0      1204.000732   1719.491699  -6660.003906     53.643318
    6703           0      1204.000732   1719.491699  -7020.003906     56.831726
    6704           0      1204.000732   1719.491699  -7380.003418     59.860920
    6705           0      1204.000732   1719.491699  -7740.003906     62.739925
    6706           0      1204.000732   1719.491699  -8100.003906     65.488243
    6707           0      1204.000732   1719.491699  -8460.003906     68.133621
    6708           0      1204.000732   1719.491699  -8820.003906     70.708763
    6709           0      1204.000732   1719.491699  -9180.003906     73.247330
    6710           0      1204.000732   1719.491699  -9540.002930     75.778702
    6711           0      1204.000732   1719.491699  -9900.003906     78.325203
    6712           0      1204.000732   1719.491699  -10260.00390     80.896965
    6713           0      1204.000732   1719.491699  -10620.00390     83.499985
    6714           0      1204.000732   1719.491699  -10980.00390     86.127319
    6715           0      1204.000732   1719.491699  -11340.00390     88.792534
    6716           0      1204.000732   1719.491699  -11700.00390     91.478050
    6717           0      1204.000732   1719.491699  -12060.00390     94.238892
    6718           0      1204.000732   1719.491699  -12420.00390     96.994781
    6719           0      1204.000732   1719.491699  -12780.00390     99.934235
    6720           0      1204.000732   1719.491699  -13140.00390    102.708069
    6721           0      1204.000732   1719.491699  -13500.00390    105.887817
    6722           0      1204.000732   1719.491699  -13860.00390    109.655098
    6723           0      1204.000732   1719.491699  -14220.00293    106.652489
    6724           0      1101.984131   1786.588989   -180.003326      8.560875
    6725           0      1101.984131   1786.588989   -540.003357      6.011461
    6726           0      1101.984131   1786.588989   -900.003418      3.560397
    6727           0      1101.984131   1786.588989  -1260.003418      2.454122
    6728           0      1101.984131   1786.588989  -1620.003418      4.331439
    6729           0      1101.984131   1786.588989  -1980.003540      7.186701
    6730           0      1101.984131   1786.588989  -2340.003662     10.358416
    6731           0      1101.984131   1786.588989  -2700.003662     13.615488
    6732           0      1101.984131   1786.588989  -3060.003418     16.967003
    6733           0      1101.984131   1786.588989  -3420.003906     20.348749
    6734           0      1101.984131   1786.588989  -3780.003906     23.763563
    6735           0      1101.984131   1786.588989  -4140.003906     27.190197
    6736           0      1101.984131   1786.588989  -4500.003906     30.629196
    6737           0      1101.984131   1786.588989  -4860.003906     34.072487
    6738           0      1101.984131   1786.588989  -5220.003906     37.512424
    6739           0      1101.984131   1786.588989  -5580.003906     40.933990
    6740           0      1101.984131   1786.588989  -5940.003418     44.319614
    6741           0      1101.984131   1786.588989  -6300.003906     47.651051
    6742           0      1101.984131   1786.588989  -6660.003906     50.913788
    6743           0      1101.984131   1786.588989  -7020.003906     54.099499
    6744           0      1101.984131   1786.588989  -7380.003906     57.207954
    6745           0      1101.984131   1786.588989  -7740.003906     60.247032
    6746           0      1101.984131   1786.588989  -8100.003418     63.231647
    6747           0      1101.984131   1786.588989  -8460.003906     66.181381
    6748           0      1101.984131   1786.588989  -8820.003906     69.117126
    6749           0      1101.984131   1786.588989  -9180.003906     72.057922
    6750           0      1101.984131   1786.588989  -9540.003906     75.017197
    6751           0      1101.984131   1786.588989  -9900.003906     78.002914
    6752           0      1101.984131   1786.588989  -10260.00390     81.015129
    6753           0      1101.984131   1786.588989  -10620.00390     84.056419
    6754           0      1101.984131   1786.588989  -10980.00390     87.121147
    6755           0      1101.984131   1786.588989  -11340.00390     90.227676
    6756           0      1101.984131   1786.588989  -11700.00390     93.357483
    6757           0      1101.984131   1786.588989  -12060.00390     96.573181
    6758           0      1101.984131   1786.588989  -12420.00390     99.773468
    6759           0      1101.984131   1786.588989  -12780.00390    103.190384
    6760           0      1101.984131   1786.588989  -13140.00390    106.380287
    6761           0      1101.984131   1786.588989  -13500.00390    110.087685
    6762           0      1101.984131   1786.588989  -13860.00390    114.270859
    6763           0      1101.984131   1786.588989  -14220.00293    111.502960
    6764           0       996.238892   1847.641113   -180.003326      7.457299
    6765           0       996.238892   1847.641113   -540.003357      5.489261
    6766           0       996.238892   1847.641113   -900.003418      4.026598
    6767           0       996.238892   1847.641113  -1260.003418      4.025896
    6768           0       996.238892   1847.641113  -1620.003418      5.683787
    6769           0       996.238892   1847.641113  -1980.003540      8.039918
    6770           0       996.238892   1847.641113  -2340.003906     10.776963
    6771           0       996.238892   1847.641113  -2700.003906     13.640460
    6772           0       996.238892   1847.641113  -3060.003418     16.627468
    6773           0       996.238892   1847.641113  -3420.003418     19.663713
    6774           0       996.238892   1847.641113  -3780.003418     22.745464
    6775           0       996.238892   1847.641113  -4140.003906     25.846632
    6776           0       996.238892   1847.641113  -4500.003906     28.965063
    6777           0       996.238892   1847.641113  -4860.003906     32.095917
    6778           0       996.238892   1847.641113  -5220.003906     35.240765
    6779           0       996.238892   1847.641113  -5580.003906     38.398663
    6780           0       996.238892   1847.641113  -5940.003906     41.567802
    6781           0       996.238892   1847.641113  -6300.003906     44.744656
    6782           0       996.238892   1847.641113  -6660.003906     47.926186
    6783           0       996.238892   1847.641113  -7020.003906     51.111187
    6784           0       996.238892   1847.641113  -7380.003906     54.301620
    6785           0       996.238892   1847.641113  -7740.003906     57.502621
    6786           0       996.238892   1847.641113  -8100.003906     60.721687
    6787           0       996.238892   1847.641113  -8460.003906     63.967060
    6788           0       996.238892   1847.641113  -8820.003906     67.245567
    6789           0       996.238892   1847.641113  -9180.003906     70.561333
    6790           0       996.238892   1847.641113  -9540.003906     73.914230
    6791           0       996.238892   1847.641113  -9900.003906     77.302322
    6792           0       996.238892   1847.641113  -10260.00390     80.720810
    6793           0       996.238892   1847.641113  -10620.00390     84.171547
    6794           0       996.238892   1847.641113  -10980.00390     87.650551
    6795           0       996.238892   1847.641113  -11340.00390     91.176849
    6796           0       996.238892   1847.641113  -11700.00390     94.730194
    6797           0       996.238892   1847.641113  -12060.00390     98.374405
    6798           0       996.238892   1847.641113  -12420.00390    101.995926
    6799           0       996.238892   1847.641113  -12780.00390    105.853477
    6800           0       996.238892   1847.641113  -13140.00390    109.438110
    6801           0       996.238892   1847.641113  -13500.00390    113.621666
    6802           0       996.238892   1847.641113  -13860.00390    118.192360
    6803           0       996.238892   1847.641113  -14220.00293    115.650162
    6804           0       887.122559   1902.441284   -180.003326      7.449594
    6805           0       887.122559   1902.441284   -540.003357      6.081913
    6806           0       887.122559   1902.441284   -900.003418      5.337512
    6807           0       887.122559   1902.441284  -1260.003418      5.590632
    6808           0       887.122559   1902.441284  -1620.003418      6.889885
    6809           0       887.122559   1902.441284  -1980.003418      8.758124
    6810           0       887.122559   1902.441284  -2340.003418     11.039160
    6811           0       887.122559   1902.441284  -2700.003418     13.493553
    6812           0       887.122559   1902.441284  -3060.003418     16.103861
    6813           0       887.122559   1902.441284  -3420.003418     18.792986
    6814           0       887.122559   1902.441284  -3780.003662     21.551418
    6815           0       887.122559   1902.441284  -4140.003418     24.352001
    6816           0       887.122559   1902.441284  -4500.003906     27.189741
    6817           0       887.122559   1902.441284  -4860.003906     30.059992
    6818           0       887.122559   1902.441284  -5220.003906     32.967396
    6819           0       887.122559   1902.441284  -5580.003418     35.918324
    6820           0       887.122559   1902.441284  -5940.003418     38.920979
    6821           0       887.122559   1902.441284  -6300.003906     41.982529
    6822           0       887.122559   1902.441284  -6660.003906     45.108990
    6823           0       887.122559   1902.441284  -7020.003906     48.304890
    6824           0       887.122559   1902.441284  -7380.003418     51.573502
    6825           0       887.122559   1902.441284  -7740.003906     54.916725
    6826           0       887.122559   1902.441284  -8100.003906     58.334732
    6827           0       887.122559   1902.441284  -8460.003906     61.825569
    6828           0       887.122559   1902.441284  -8820.003906     65.384689
    6829           0       887.122559   1902.441284  -9180.003906     69.005424
    6830           0       887.122559   1902.441284  -9540.002930     72.679482
    6831           0       887.122559   1902.441284  -9900.003906     76.399857
    6832           0       887.122559   1902.441284  -10260.00390     80.160225
    6833           0       887.122559   1902.441284  -10620.00390     83.961739
    6834           0       887.122559   1902.441284  -10980.00390     87.800705
    6835           0       887.122559   1902.441284  -11340.00390     91.692902
    6836           0       887.122559   1902.441284  -11700.00390     95.617203
    6837           0       887.122559   1902.441284  -12060.00390     99.633072
    6838           0       887.122559   1902.441284  -12420.00390    103.624001
    6839           0       887.122559   1902.441284  -12780.00390    107.857796
    6840           0       887.122498   1902.441284  -13140.00390    111.790627
    6841           0       887.122498   1902.441284  -13500.00390    116.371758
    6842           0       887.122498   1902.441284  -13860.00390    121.279190
    6843           0       887.122559   1902.441284  -14220.00293    118.935509
    6844           0       775.004578   1950.804199   -180.003326      8.172931
    6845           0       775.004578   1950.804199   -540.003357      7.169197
    6846           0       775.004578   1950.804199   -900.003418      6.711257
    6847           0       775.004578   1950.804199  -1260.003418      6.922242
    6848           0       775.004578   1950.804199  -1620.003418      7.879876
    6849           0       775.004578   1950.804199  -1980.003540      9.326253
    6850           0       775.004578   1950.804199  -2340.003662     11.185160
    6851           0       775.004578   1950.804199  -2700.003662     13.259998
    6852           0       775.004578   1950.804199  -3060.003418     15.521399
    6853           0       775.004578   1950.804199  -3420.003906     17.897282
    6854           0       775.004578   1950.804199  -3780.003906     20.372978
    6855           0       775.004578   1950.804199  -4140.003906     22.923590
    6856           0       775.004578   1950.804199  -4500.003906     25.542332
    6857           0       775.004578   1950.804199  -4860.003906     28.224127
    6858           0       775.004578   1950.804199  -5220.003906     30.972471
    6859           0       775.004578   1950.804199  -5580.003906     33.794540
    6860           0       775.004517   1950.804199  -5940.003418     36.700912
    6861           0       775.004517   1950.804199  -6300.003906     39.702431
    6862           0       775.004517   1950.804199  -6660.003906     42.808701
    6863           0       775.004517   1950.804199  -7020.003906     46.026535
    6864           0       775.004517   1950.804199  -7380.003906     49.359222
    6865           0       775.004517   1950.804199  -7740.003906     52.806206
    6866           0       775.004517   1950.804199  -8100.003418     56.363052
    6867           0       775.004517   1950.804199  -8460.003906     60.022060
    6868           0       775.004517   1950.804199  -8820.003906     63.772903
    6869           0       775.004517   1950.804199  -9180.003906     67.604294
    6870           0       775.004517   1950.804199  -9540.003906     71.505165
    6871           0       775.004517   1950.804199  -9900.003906     75.467194
    6872           0       775.004517   1950.804199  -10260.00390     79.483894
    6873           0       775.004517   1950.804199  -10620.00390     83.554749
    6874           0       775.004517   1950.804199  -10980.00390     87.675087
    6875           0       775.004517   1950.804199  -11340.00390     91.855347
    6876           0       775.004517   1950.804199  -11700.00390     96.074883
    6877           0       775.004517   1950.804199  -12060.00390    100.384987
    6878           0       775.004517   1950.804199  -12420.00390    104.673546
    6879           0       775.004517   1950.804199  -12780.00390    109.202370
    6880           0       775.004517   1950.804199  -13140.00390    113.419434
    6881           0       775.004517   1950.804321  -13500.00390    118.305450
    6882           0       775.004517   1950.804321  -13860.00390    123.484070
    6883           0       775.004517   1950.804199  -14220.00293    121.301346
    6884           0       660.264221   1992.566406   -180.003326      9.280662
    6885           0       660.264221   1992.566406   -540.003357      8.420157
    6886           0       660.264221   1992.566406   -900.003418      8.015012
    6887           0       660.264221   1992.566406  -1260.003418      8.091599
    6888           0       660.264221   1992.566406  -1620.003418      8.740225
    6889           0       660.264221   1992.566406  -1980.003540      9.830492
    6890           0       660.264221   1992.566406  -2340.003906     11.321328
    6891           0       660.264221   1992.566406  -2700.003906     13.069077
    6892           0       660.264221   1992.566406  -3060.003418     15.034066
    6893           0       660.264221   1992.566406  -3420.003418     17.153873
    6894           0       660.264221   1992.566406  -3780.003418     19.407713
    6895           0       660.264221   1992.566406  -4140.003906     21.773611
    6896           0       660.264221   1992.566406  -4500.003906     24.242691
    6897           0       660.264221   1992.566406  -4860.003906     26.809086
    6898           0       660.264221   1992.566406  -5220.003906     29.472757
    6899           0       660.264221   1992.566406  -5580.003906     32.237362
    6900           0       660.264221   1992.566406  -5940.003906     35.109768
    6901           0       660.264221   1992.566406  -6300.003906     38.098137
    6902           0       660.264221   1992.566406  -6660.003906     41.210243
    6903           0       660.264221   1992.566406  -7020.003906     44.451653
    6904           0       660.264221   1992.566406  -7380.003906     47.824661
    6905           0       660.264221   1992.566406  -7740.003906     51.327648
    6906           0       660.264221   1992.566406  -8100.003906     54.955231
    6907           0       660.264221   1992.566406  -8460.003906     58.698967
    6908           0       660.264221   1992.566406  -8820.003906     62.548496
    6909           0       660.264221   1992.566406  -9180.003906     66.493118
    6910           0       660.264221   1992.566406  -9540.003906     70.523018
    6911           0       660.264221   1992.566406  -9900.003906     74.630608
    6912           0       660.264221   1992.566406  -10260.00390     78.809814
    6913           0       660.264221   1992.566406  -10620.00390     83.057877
    6914           0       660.264221   1992.566406  -10980.00390     87.369110
    6915           0       660.264221   1992.566406  -11340.00390     91.748123
    6916           0       660.264221   1992.566406  -11700.00390     96.176254
    6917           0       660.264221   1992.566406  -12060.00390    100.694122
    6918           0       660.264221   1992.566406  -12420.00390    105.199585
    6919           0       660.264221   1992.566406  -12780.00390    109.936447
    6920           0       660.264221   1992.566406  -13140.00390    114.365852
    6921           0       660.264221   1992.566406  -13500.00390    119.461945
    6922           0       660.264221   1992.566406  -13860.00390    124.839951
    6923           0       660.264221   1992.566406  -14220.00293    122.778130
    6924           0       543.289673   2027.586182   -180.003326     10.599884
    6925           0       543.289673   2027.586182   -540.003357      9.758148
    6926           0       543.289673   2027.586182   -900.003418      9.298847
    6927           0       543.289673   2027.586182  -1260.003418      9.211988
    6928           0       543.289673   2027.586182  -1620.003418      9.588919
    6929           0       543.289673   2027.586182  -1980.003418     10.381038
    6930           0       543.289673   2027.586182  -2340.003418     11.563109
    6931           0       543.289673   2027.586182  -2700.003418     13.042846
    6932           0       543.289673   2027.586182  -3060.003418     14.772357
    6933           0       543.289673   2027.586182  -3420.003418     16.699783
    6934           0       543.289673   2027.586182  -3780.003662     18.796461
    6935           0       543.289673   2027.586182  -4140.003418     21.041397
    6936           0       543.289673   2027.586182  -4500.003906     23.421719
    6937           0       543.289673   2027.586182  -4860.003906     25.929552
    6938           0       543.289673   2027.586182  -5220.003906     28.560226
    6939           0       543.289673   2027.586182  -5580.003418     31.312185
    6940           0       543.289673   2027.586182  -5940.003418     34.186035
    6941           0       543.289673   2027.586182  -6300.003906     37.184193
    6942           0       543.289673   2027.586182  -6660.003906     40.309574
    6943           0       543.289673   2027.586182  -7020.003906     43.564571
    6944           0       543.289673   2027.586304  -7380.003418     46.949883
    6945           0       543.289673   2027.586304  -7740.003906     50.463966
    6946           0       543.289673   2027.586304  -8100.003906     54.102974
    6947           0       543.289673   2027.586304  -8460.003906     57.861069
    6948           0       543.289673   2027.586304  -8820.003906     61.731380
    6949           0       543.289673   2027.586304  -9180.003906     65.706749
    6950           0       543.289673   2027.586304  -9540.002930     69.780609
    6951           0       543.289673   2027.586304  -9900.003906     73.947136
    6952           0       543.289612   2027.586304  -10260.00390     78.201134
    6953           0       543.289612   2027.586304  -10620.00390     82.538086
    6954           0       543.289612   2027.586304  -10980.00390     86.952225
    6955           0       543.289612   2027.586304  -11340.00390     91.442886
    6956           0       543.289612   2027.586304  -11700.00390     95.994942
    6957           0       543.289612   2027.586304  -12060.00390    100.636925
    6958           0       543.289612   2027.586304  -12420.00390    105.280304
    6959           0       543.289612   2027.586304  -12780.00390    110.142807
    6960           0       543.289612   2027.586304  -13140.00390    114.714073
    6961           0       543.289612   2027.586304  -13500.00390    119.933052
    6962           0       543.289612   2027.586304  -13860.00390    125.441483
    6963           0       543.289612   2027.586182  -14220.00293    123.464043
    6964           0       424.476898   2055.745361   -180.003326     12.044111
    6965           0       424.476898   2055.745361   -540.003357     11.169328
    6966           0       424.476898   2055.745361   -900.003418     10.614768
    6967           0       424.476898   2055.745361  -1260.003418     10.363565
    6968           0       424.476898   2055.745361  -1620.003418     10.511038
    6969           0       424.476898   2055.745361  -1980.003540     11.056374
    6970           0       424.476898   2055.745361  -2340.003662     11.986501
    6971           0       424.476898   2055.745361  -2700.003662     13.251664
    6972           0       424.476898   2055.745361  -3060.003418     14.799672
    6973           0       424.476898   2055.745361  -3420.003906     16.587677
    6974           0       424.476898   2055.745361  -3780.003906     18.578180
    6975           0       424.476898   2055.745361  -4140.003906     20.748423
    6976           0       424.476898   2055.745361  -4500.003906     23.079357
    6977           0       424.476868   2055.745361  -4860.003906     25.559610
    6978           0       424.476868   2055.745361  -5220.003906     28.179535
    6979           0       424.476868   2055.745361  -5580.003906     30.932703
    6980           0       424.476868   2055.745361  -5940.003418     33.814018
    6981           0       424.476868   2055.745361  -6300.003906     36.820313
    6982           0       424.476868   2055.745361  -6660.003906     39.949577
    6983           0       424.476868   2055.745361  -7020.003906     43.200722
    6984           0       424.476868   2055.745361  -7380.003906     46.572777
    6985           0       424.476868   2055.745361  -7740.003906     50.064556
    6986           0       424.476868   2055.745361  -8100.003418     53.674347
    6987           0       424.476868   2055.745361  -8460.003906     57.399864
    6988           0       424.476868   2055.745361  -8820.003906     61.238487
    6989           0       424.476868   2055.745361  -9180.003906     65.187263
    6990           0       424.476868   2055.745361  -9540.003906     69.243256
    6991           0       424.476868   2055.745361  -9900.003906     73.402740
    6992           0       424.476837   2055.745361  -10260.00390     77.662148
    6993           0       424.476837   2055.745361  -10620.00390     82.016197
    6994           0       424.476837   2055.745361  -10980.00390     86.460327
    6995           0       424.476837   2055.745361  -11340.00390     90.989746
    6996           0       424.476837   2055.745361  -11700.00390     95.593773
    6997           0       424.476837   2055.745361  -12060.00390    100.288940
    6998           0       424.476837   2055.745361  -12420.00390    105.001884
    6999           0       424.476837   2055.745361  -12780.00390    109.920715
    7000           0       424.476837   2055.745361  -13140.00390    114.571838
    7001           0       424.476837   2055.745361  -13500.00390    119.842155
    7002           0       424.476837   2055.745361  -13860.00390    125.420532
    7003           0       424.476868   2055.745361  -14220.00293    123.500252
    7004           0       304.227783   2076.948730   -180.003326     13.533371
    7005           0       304.227783   2076.948730   -540.003357     12.618223
    7006           0       304.227783   2076.948730   -900.003418     11.964891
    7007           0       304.227783   2076.948730  -1260.003418     11.568147
    7008           0       304.227783   2076.948730  -1620.003418     11.532310
    7009           0       304.227783   2076.948730  -1980.003540     11.877875
    7010           0       304.227783   2076.948730  -2340.003906     12.605796
    7011           0       304.227783   2076.948730  -2700.003906     13.696944
    7012           0       304.227783   2076.948730  -3060.003418     15.100212
    7013           0       304.227783   2076.948730  -3420.003418     16.779766
    7014           0       304.227783   2076.948730  -3780.003418     18.690535
    7015           0       304.227783   2076.948730  -4140.003906     20.806290
    7016           0       304.227783   2076.948730  -4500.003906     23.101032
    7017           0       304.227783   2076.948730  -4860.003906     25.558989
    7018           0       304.227783   2076.948730  -5220.003906     28.165812
    7019           0       304.227783   2076.948730  -5580.003906     30.911297
    7020           0       304.227783   2076.948730  -5940.003906     33.786423
    7021           0       304.227783   2076.948730  -6300.003906     36.784241
    7022           0       304.227783   2076.948730  -6660.003906     39.899277
    7023           0       304.227783   2076.948730  -7020.003906     43.127743
    7024           0       304.227783   2076.948730  -7380.003906     46.467278
    7025           0       304.227783   2076.948730  -7740.003906     49.916744
    7026           0       304.227783   2076.948730  -8100.003906     53.475975
    7027           0       304.227783   2076.948730  -8460.003906     57.145332
    7028           0       304.227783   2076.948730  -8820.003906     60.925537
    7029           0       304.227783   2076.948730  -9180.003906     64.816925
    7030           0       304.227783   2076.948730  -9540.003906     68.819603
    7031           0       304.227783   2076.948730  -9900.003906     72.931877
    7032           0       304.227783   2076.948730  -10260.00390     77.152222
    7033           0       304.227783   2076.948730  -10620.00390     81.475578
    7034           0       304.227783   2076.948730  -10980.00390     85.899498
    7035           0       304.227783   2076.948730  -11340.00390     90.416191
    7036           0       304.227783   2076.948730  -11700.00390     95.019783
    7037           0       304.227783   2076.948730  -12060.00390     99.716110
    7038           0       304.227783   2076.948730  -12420.00390    104.446419
    7039           0       304.227783   2076.948730  -12780.00390    109.370331
    7040           0       304.227783   2076.948730  -13140.00390    114.052055
    7041           0       304.227783   2076.948730  -13500.00390    119.322128
    7042           0       304.227783   2076.948730  -13860.00390    124.921631
    7043           0       304.227783   2076.948730  -14220.00293    123.043625
    7044           0       182.949219   2091.124023   -180.003326     14.978965
    7045           0       182.949219   2091.124023   -540.003357     14.041257
    7046           0       182.949219   2091.124023   -900.003418     13.308404
    7047           0       182.949219   2091.124023  -1260.003418     12.800112
    7048           0       182.949219   2091.124023  -1620.003418     12.628373
    7049           0       182.949219   2091.124023  -1980.003418     12.817941
    7050           0       182.949219   2091.124023  -2340.003418     13.384443
    7051           0       182.949203   2091.124023  -2700.003418     14.327986
    7052           0       182.949203   2091.124023  -3060.003418     15.604037
    7053           0       182.949203   2091.124023  -3420.003418     17.182716
    7054           0       182.949203   2091.124023  -3780.003662     19.015133
    7055           0       182.949203   2091.124023  -4140.003418     21.071848
    7056           0       182.949203   2091.124023  -4500.003906     23.321108
    7057           0       182.949203   2091.124023  -4860.003906     25.742928
    7058           0       182.949203   2091.124023  -5220.003906     28.319006
    7059           0       182.949203   2091.124023  -5580.003418     31.036335
    7060           0       182.949203   2091.124023  -5940.003418     33.883480
    7061           0       182.949203   2091.124023  -6300.003906     36.851460
    7062           0       182.949203   2091.124023  -6660.003906     39.932880
    7063           0       182.949203   2091.124023  -7020.003906     43.122345
    7064           0       182.949203   2091.124023  -7380.003418     46.416477
    7065           0       182.949203   2091.124023  -7740.003906     49.813942
    7066           0       182.949203   2091.124023  -8100.003906     53.315182
    7067           0       182.949203   2091.124023  -8460.003906     56.921883
    7068           0       182.949188   2091.124023  -8820.003906     60.636570
    7069           0       182.949173   2091.124023  -9180.003906     64.461456
    7070           0       182.949173   2091.124023  -9540.002930     68.398590
    7071           0       182.949173   2091.124023  -9900.003906     72.447868
    7072           0       182.949173   2091.124023  -10260.00390     76.609573
    7073           0       182.949173   2091.124023  -10620.00390     80.879349
    7074           0       182.949173   2091.124023  -10980.00390     85.256760
    7075           0       182.949173   2091.124023  -11340.00390     89.732407
    7076           0       182.949173   2091.124023  -11700.00390     94.304146
    7077           0       182.949173   2091.124023  -12060.00390     98.970177
    7078           0       182.949173   2091.124023  -12420.00390    103.682976
    7079           0       182.949158   2091.124023  -12780.00390    108.579933
    7080           0       182.949158   2091.124023  -13140.00390    113.256500
    7081           0       182.949158   2091.124023  -13500.00390    118.494835
    7082           0       182.949158   2091.124023  -13860.00390    124.079597
    7083           0       182.949188   2091.124023  -14220.00293    122.240318
    7084           0        61.051674   2098.223633   -180.003326     16.302307
    7085           0        61.051674   2098.223633   -540.003357     15.372717
    7086           0        61.051674   2098.223633   -900.003418     14.591854
    7087           0        61.051674   2098.223633  -1260.003418     14.015797
    7088           0        61.051666   2098.223633  -1620.003418     13.753777
    7089           0        61.051662   2098.223633  -1980.003540     13.828225
    7090           0        61.051662   2098.223633  -2340.003662     14.266099
    7091           0        61.051662   2098.223633  -2700.003662     15.078150
    7092           0        61.051662   2098.223633  -3060.003418     16.230392
    7093           0        61.051662   2098.223633  -3420.003906     17.699127
    7094           0        61.051662   2098.223633  -3780.003906     19.436832
    7095           0        61.051662   2098.223633  -4140.003906     21.412924
    7096           0        61.051662   2098.223633  -4500.003906     23.592691
    7097           0        61.051662   2098.223633  -4860.003906     25.953173
    7098           0        61.051659   2098.223633  -5220.003906     28.473269
    7099           0        61.051655   2098.223633  -5580.003906     31.137896
    7100           0        61.051655   2098.223633  -5940.003418     33.934044
    7101           0        61.051655   2098.223633  -6300.003906     36.851578
    7102           0        61.051655   2098.223633  -6660.003906     39.882149
    7103           0        61.051655   2098.223633  -7020.003906     43.019600
    7104           0        61.051655   2098.223633  -7380.003906     46.259975
    7105           0        61.051655   2098.223633  -7740.003906     49.601643
    7106           0        61.051655   2098.223633  -8100.003418     53.045055
    7107           0        61.051655   2098.223633  -8460.003906     56.592190
    7108           0        61.051651   2098.223633  -8820.003906     60.246033
    7109           0        61.051643   2098.223633  -9180.003906     64.009407
    7110           0        61.051643   2098.223633  -9540.003906     67.885094
    7111           0        61.051643   2098.223633  -9900.003906     71.873718
    7112           0        61.051643   2098.223633  -10260.00390     75.976479
    7113           0        61.051643   2098.223633  -10620.00390     80.189606
    7114           0        61.051643   2098.223633  -10980.00390     84.513763
    7115           0        61.051643   2098.223633  -11340.00390     88.938965
    7116           0        61.051643   2098.223633  -11700.00390     93.465034
    7117           0        61.051643   2098.223633  -12060.00390     98.086288
    7118           0        61.051643   2098.223633  -12420.00390    102.761429
    7119           0        61.051636   2098.223633  -12780.00390    107.615112
    7120           0        61.051632   2098.223633  -13140.00390    112.262337
    7121           0        61.051632   2098.223633  -13500.00390    117.453552
    7122           0        61.051632   2098.223633  -13860.00390    122.998314
    7123           0        61.051651   2098.223633  -14220.00293    121.203758
    7124           0       -61.052467   2098.223633   -180.003326     17.458563
    7125           0       -61.052467   2098.223633   -540.003357     16.570391
    7126           0       -61.052467   2098.223633   -900.003418     15.778149
    7127           0       -61.052467   2098.223633  -1260.003418     15.180646
    7128           0       -61.052467   2098.223633  -1620.003418     14.870063
    7129           0       -61.052467   2098.223633  -1980.003540     14.867174
    7130           0       -61.052467   2098.223633  -2340.003906     15.204244
    7131           0       -61.052467   2098.223633  -2700.003906     15.896944
    7132           0       -61.052467   2098.223633  -3060.003418     16.923544
    7133           0       -61.052467   2098.223633  -3420.003418     18.267124
    7134           0       -61.052467   2098.223633  -3780.003418     19.886673
    7135           0       -61.052467   2098.223633  -4140.003906     21.753477
    7136           0       -61.052467   2098.223633  -4500.003906     23.833481
    7137           0       -61.052467   2098.223633  -4860.003906     26.102737
    7138           0       -61.052467   2098.223633  -5220.003906     28.538895
    7139           0       -61.052467   2098.223633  -5580.003906     31.125496
    7140           0       -61.052467   2098.223633  -5940.003906     33.848408
    7141           0       -61.052467   2098.223633  -6300.003906     36.696678
    7142           0       -61.052467   2098.223633  -6660.003906     39.661419
    7143           0       -61.052467   2098.223633  -7020.003906     42.736168
    7144           0       -61.052471   2098.223633  -7380.003906     45.916740
    7145           0       -61.052475   2098.223633  -7740.003906     49.201263
    7146           0       -61.052475   2098.223633  -8100.003906     52.589905
    7147           0       -61.052475   2098.223633  -8460.003906     56.084290
    7148           0       -61.052475   2098.223633  -8820.003906     59.686951
    7149           0       -61.052475   2098.223633  -9180.003906     63.400223
    7150           0       -61.052475   2098.223633  -9540.003906     67.226494
    7151           0       -61.052475   2098.223633  -9900.003906     71.166054
    7152           0       -61.052475   2098.223633  -10260.00390     75.219864
    7153           0       -61.052475   2098.223633  -10620.00390     79.383980
    7154           0       -61.052475   2098.223633  -10980.00390     83.659027
    7155           0       -61.052475   2098.223633  -11340.00390     88.034943
    7156           0       -61.052475   2098.223633  -11700.00390     92.511673
    7157           0       -61.052475   2098.223633  -12060.00390     97.083267
    7158           0       -61.052483   2098.223633  -12420.00390    101.709450
    7159           0       -61.052483   2098.223633  -12780.00390    106.512329
    7160           0       -61.052483   2098.223633  -13140.00390    111.113258
    7161           0       -61.052483   2098.223633  -13500.00390    116.251076
    7162           0       -61.052483   2098.223633  -13860.00390    121.736725
    7163           0       -61.052475   2098.223633  -14220.00293    119.999321
    7164           0      -182.950089   2091.124023   -180.003326     18.447765
    7165           0      -182.950089   2091.124023   -540.003357     17.630013
    7166           0      -182.950089   2091.124023   -900.003418     16.861090
    7167           0      -182.950089   2091.124023  -1260.003418     16.284088
    7168           0      -182.950089   2091.124023  -1620.003418     15.960750
    7169           0      -182.950104   2091.124023  -1980.003418     15.914847
    7170           0      -182.950104   2091.124023  -2340.003418     16.177265
    7171           0      -182.950104   2091.124023  -2700.003418     16.765152
    7172           0      -182.950104   2091.124023  -3060.003418     17.668289
    7173           0      -182.950104   2091.124023  -3420.003418     18.876392
    7174           0      -182.950104   2091.124023  -3780.003662     20.358503
    7175           0      -182.950104   2091.124023  -4140.003418     22.090567
    7176           0      -182.950104   2091.124023  -4500.003906     24.042683
    7177           0      -182.950104   2091.124023  -4860.003906     26.192194
    7178           0      -182.950104   2091.124023  -5220.003906     28.517336
    7179           0      -182.950104   2091.124023  -5580.003418     31.001257
    7180           0      -182.950104   2091.124023  -5940.003418     33.629360
    7181           0      -182.950104   2091.124023  -6300.003906     36.390274
    7182           0      -182.950104   2091.124023  -6660.003906     39.274979
    7183           0      -182.950119   2091.124023  -7020.003906     42.277035
    7184           0      -182.950119   2091.124023  -7380.003418     45.392246
    7185           0      -182.950119   2091.124023  -7740.003906     48.618469
    7186           0      -182.950119   2091.124023  -8100.003906     51.955280
    7187           0      -182.950119   2091.124023  -8460.003906     55.403320
    7188           0      -182.950119   2091.124023  -8820.003906     58.963886
    7189           0      -182.950119   2091.124023  -9180.003906     62.637897
    7190           0      -182.950119   2091.124023  -9540.002930     66.426224
    7191           0      -182.950134   2091.124023  -9900.003906     70.327858
    7192           0      -182.950134   2091.124023  -10260.00390     74.342400
    7193           0      -182.950134   2091.124023  -10620.00390     78.465042
    7194           0      -182.950134   2091.124023  -10980.00390     82.695137
    7195           0      -182.950134   2091.124023  -11340.00390     87.023140
    7196           0      -182.950134   2091.124023  -11700.00390     91.447258
    7197           0      -182.950134   2091.124023  -12060.00390     95.964790
    7198           0      -182.950134   2091.124023  -12420.00390    100.531334
    7199           0      -182.950134   2091.124023  -12780.00390    105.276489
    7200           0      -182.950150   2091.124023  -13140.00390    109.815125
    7201           0      -182.950165   2091.124023  -13500.00390    114.893776
    7202           0      -182.950165   2091.124023  -13860.00390    120.302673
    7203           0      -182.950119   2091.124023  -14220.00293    118.634682
    7204           0      -304.228607   2076.948730   -180.003326     19.312866
    7205           0      -304.228607   2076.948730   -540.003357     18.584013
    7206           0      -304.228607   2076.948730   -900.003418     17.866173
    7207           0      -304.228607   2076.948730  -1260.003418     17.341143
    7208           0      -304.228607   2076.948730  -1620.003418     17.033575
    7209           0      -304.228607   2076.948730  -1980.003540     16.974842
    7210           0      -304.228607   2076.948730  -2340.003662     17.189539
    7211           0      -304.228607   2076.948730  -2700.003662     17.694157
    7212           0      -304.228607   2076.948730  -3060.003418     18.487438
    7213           0      -304.228607   2076.948730  -3420.003906     19.564077
    7214           0      -304.228607   2076.948730  -3780.003906     20.904055
    7215           0      -304.228607   2076.948730  -4140.003906     22.489223
    7216           0      -304.228607   2076.948730  -4500.003906     24.296165
    7217           0      -304.228607   2076.948730  -4860.003906     26.305397
    7218           0      -304.228607   2076.948730  -5220.003906     28.497606
    7219           0      -304.228607   2076.948730  -5580.003906     30.857014
    7220           0      -304.228607   2076.948730  -5940.003418     33.369884
    7221           0      -304.228607   2076.948730  -6300.003906     36.025509
    7222           0      -304.228607   2076.948730  -6660.003906     38.815594
    7223           0      -304.228638   2076.948730  -7020.003906     41.734211
    7224           0      -304.228638   2076.948730  -7380.003906     44.777271
    7225           0      -304.228638   2076.948730  -7740.003906     47.942104
    7226           0      -304.228638   2076.948730  -8100.003418     51.227001
    7227           0      -304.228638   2076.948730  -8460.003906     54.630737
    7228           0      -304.228638   2076.948730  -8820.003906     58.152367
    7229           0      -304.228638   2076.948730  -9180.003906     61.790462
    7230           0      -304.228638   2076.948730  -9540.003906     65.543427
    7231           0      -304.228638   2076.948730  -9900.003906     69.408279
    7232           0      -304.228638   2076.948730  -10260.00390     73.382500
    7233           0      -304.228638   2076.948730  -10620.00390     77.460342
    7234           0      -304.228638   2076.948730  -10980.00390     81.638962
    7235           0      -304.228638   2076.948730  -11340.00390     85.910355
    7236           0      -304.228638   2076.948730  -11700.00390     90.269173
    7237           0      -304.228638   2076.948730  -12060.00390     94.719666
    7238           0      -304.228638   2076.948730  -12420.00390     99.208290
    7239           0      -304.228638   2076.948730  -12780.00390    103.881462
    7240           0      -304.228638   2076.948730  -13140.00390    108.335991
    7241           0      -304.228668   2076.948730  -13500.00390    113.342728
    7242           0      -304.228668   2076.948730  -13860.00390    118.652382
    7243           0      -304.228638   2076.948730  -14220.00293    117.061409
    7244           0      -424.477692   2055.745361   -180.003326     20.125536
    7245           0      -424.477692   2055.745361   -540.003357     19.491022
    7246           0      -424.477692   2055.745361   -900.003418     18.840906
    7247           0      -424.477692   2055.745361  -1260.003418     18.385866
    7248           0      -424.477692   2055.745361  -1620.003418     18.114075
    7249           0      -424.477692   2055.745361  -1980.003540     18.067909
    7250           0      -424.477692   2055.745361  -2340.003906     18.263092
    7251           0      -424.477692   2055.745361  -2700.003906     18.714569
    7252           0      -424.477692   2055.745361  -3060.003418     19.426443
    7253           0      -424.477692   2055.745361  -3420.003418     20.395567
    7254           0      -424.477692   2055.745361  -3780.003418     21.610748
    7255           0      -424.477692   2055.745361  -4140.003906     23.058664
    7256           0      -424.477692   2055.745361  -4500.003906     24.722473
    7257           0      -424.477692   2055.745361  -4860.003906     26.586546
    7258           0      -424.477692   2055.745361  -5220.003906     28.635454
    7259           0      -424.477692   2055.745361  -5580.003906     30.856274
    7260           0      -424.477692   2055.745361  -5940.003906     33.238121
    7261           0      -424.477692   2055.745361  -6300.003906     35.772781
    7262           0      -424.477692   2055.745361  -6660.003906     38.454014
    7263           0      -424.477692   2055.745361  -7020.003906     41.277130
    7264           0      -424.477692   2055.745361  -7380.003906     44.238186
    7265           0      -424.477692   2055.745361  -7740.003906     47.333485
    7266           0      -424.477692   2055.745361  -8100.003906     50.559109
    7267           0      -424.477692   2055.745361  -8460.003906     53.910912
    7268           0      -424.477692   2055.745361  -8820.003906     57.384510
    7269           0      -424.477692   2055.745361  -9180.003906     60.975361
    7270           0      -424.477692   2055.745361  -9540.003906     64.678772
    7271           0      -424.477692   2055.745361  -9900.003906     68.489502
    7272           0      -424.477692   2055.745361  -10260.00390     72.402924
    7273           0      -424.477692   2055.745361  -10620.00390     76.413025
    7274           0      -424.477692   2055.745361  -10980.00390     80.514610
    7275           0      -424.477692   2055.745361  -11340.00390     84.702408
    7276           0      -424.477692   2055.745361  -11700.00390     88.966621
    7277           0      -424.477692   2055.745361  -12060.00390     93.321228
    7278           0      -424.477692   2055.745361  -12420.00390     97.700401
    7279           0      -424.477692   2055.745361  -12780.00390    102.273003
    7280           0      -424.477692   2055.745361  -13140.00390    106.611923
    7281           0      -424.477692   2055.745361  -13500.00390    111.519043
    7282           0      -424.477692   2055.745361  -13860.00390    116.699341
    7283           0      -424.477692   2055.745361  -14220.00293    115.182442
    7284           0      -543.290527   2027.586182   -180.003326     20.970261
    7285           0      -543.290527   2027.586182   -540.003357     20.421228
    7286           0      -543.290527   2027.586182   -900.003418     19.843342
    7287           0      -543.290527   2027.586182  -1260.003418     19.461891
    7288           0      -543.290527   2027.586182  -1620.003418     19.236534
    7289           0      -543.290527   2027.586182  -1980.003418     19.222113
    7290           0      -543.290527   2027.586182  -2340.003418     19.425127
    7291           0      -543.290527   2027.586182  -2700.003418     19.859327
    7292           0      -543.290527   2027.586182  -3060.003418     20.530584
    7293           0      -543.290527   2027.586182  -3420.003418     21.434860
    7294           0      -543.290527   2027.586182  -3780.003662     22.565563
    7295           0      -543.290527   2027.586182  -4140.003418     23.910992
    7296           0      -543.290527   2027.586182  -4500.003906     25.458485
    7297           0      -543.290527   2027.586182  -4860.003906     27.195322
    7298           0      -543.290588   2027.586182  -5220.003906     29.110273
    7299           0      -543.290588   2027.586182  -5580.003418     31.194607
    7300           0      -543.290588   2027.586182  -5940.003418     33.442066
    7301           0      -543.290588   2027.586182  -6300.003906     35.848503
    7302           0      -543.290588   2027.586182  -6660.003906     38.410866
    7303           0      -543.290588   2027.586182  -7020.003906     41.126198
    7304           0      -543.290588   2027.586182  -7380.003418     43.990726
    7305           0      -543.290588   2027.586182  -7740.003906     46.999344
    7306           0      -543.290588   2027.586182  -8100.003906     50.145496
    7307           0      -543.290588   2027.586182  -8460.003906     53.421463
    7308           0      -543.290588   2027.586182  -8820.003906     56.818966
    7309           0      -543.290588   2027.586182  -9180.003906     60.329865
    7310           0      -543.290588   2027.586182  -9540.002930     63.946594
    7311           0      -543.290588   2027.586182  -9900.003906     67.662010
    7312           0      -543.290588   2027.586182  -10260.00390     71.469818
    7313           0      -543.290588   2027.586182  -10620.00390     75.364952
    7314           0      -543.290588   2027.586182  -10980.00390     79.340981
    7315           0      -543.290588   2027.586182  -11340.00390     83.396202
    7316           0      -543.290588   2027.586182  -11700.00390     87.516846
    7317           0      -543.290588   2027.586182  -12060.00390     91.727608
    7318           0      -543.290588   2027.586182  -12420.00390     95.950027
    7319           0      -543.290588   2027.586182  -12780.00390    100.376015
    7320           0      -543.290588   2027.586182  -13140.00390    104.555710
    7321           0      -543.290588   2027.586182  -13500.00390    109.317726
    7322           0      -543.290588   2027.586182  -13860.00390    114.326714
    7323           0      -543.290527   2027.586182  -14220.00293    112.871536
    7324           0      -660.265015   1992.566284   -180.003326     21.933584
    7325           0      -660.265015   1992.566284   -540.003357     21.449251
    7326           0      -660.265015   1992.566284   -900.003418     20.935007
    7327           0      -660.265015   1992.566284  -1260.003418     20.617086
    7328           0      -660.265015   1992.566284  -1620.003418     20.437880
    7329           0      -660.265015   1992.566284  -1980.003540     20.465384
    7330           0      -660.265015   1992.566284  -2340.003662     20.697550
    7331           0      -660.265015   1992.566284  -2700.003662     21.148685
    7332           0      -660.265015   1992.566284  -3060.003418     21.823456
    7333           0      -660.265015   1992.566284  -3420.003906     22.714752
    7334           0      -660.265015   1992.566284  -3780.003906     23.815886
    7335           0      -660.265015   1992.566284  -4140.003906     25.112907
    7336           0      -660.265015   1992.566284  -4500.003906     26.593691
    7337           0      -660.265015   1992.566284  -4860.003906     28.246273
    7338           0      -660.265015   1992.566284  -5220.003906     30.062544
    7339           0      -660.265015   1992.566284  -5580.003906     32.037548
    7340           0      -660.265015   1992.566284  -5940.003418     34.169365
    7341           0      -660.265015   1992.566284  -6300.003906     36.457485
    7342           0      -660.265015   1992.566284  -6660.003906     38.901493
    7343           0      -660.265015   1992.566284  -7020.003906     41.499725
    7344           0      -660.265015   1992.566284  -7380.003906     44.248497
    7345           0      -660.265015   1992.566284  -7740.003906     47.141705
    7346           0      -660.265015   1992.566284  -8100.003418     50.170918
    7347           0      -660.265015   1992.566284  -8460.003906     53.326019
    7348           0      -660.265015   1992.566284  -8820.003906     56.595856
    7349           0      -660.265015   1992.566284  -9180.003906     59.969711
    7350           0      -660.265015   1992.566284  -9540.003906     63.437775
    7351           0      -660.265015   1992.566284  -9900.003906     66.992615
    7352           0      -660.265015   1992.566284  -10260.00390     70.626671
    7353           0      -660.265015   1992.566284  -10620.00390     74.337189
    7354           0      -660.265015   1992.566284  -10980.00390     78.118126
    7355           0      -660.265015   1992.566284  -11340.00390     81.972054
    7356           0      -660.265015   1992.566284  -11700.00390     85.882492
    7357           0      -660.265015   1992.566284  -12060.00390     89.884323
    7358           0      -660.265015   1992.566284  -12420.00390     93.888283
    7359           0      -660.265015   1992.566284  -12780.00390     98.105560
    7360           0      -660.265015   1992.566284  -13140.00390    102.071487
    7361           0      -660.265015   1992.566284  -13500.00390    106.624710
    7362           0      -660.265015   1992.566284  -13860.00390    111.410896
    7363           0      -660.265015   1992.566284  -14220.00293    109.993439
    7364           0      -775.005371   1950.804199   -180.003326     23.106153
    7365           0      -775.005371   1950.804199   -540.003357     22.656511
    7366           0      -775.005371   1950.804199   -900.003418     22.183392
    7367           0      -775.005371   1950.804199  -1260.003418     21.904713
    7368           0      -775.005371   1950.804199  -1620.003418     21.757896
    7369           0      -775.005371   1950.804199  -1980.003540     21.823816
    7370           0      -775.005371   1950.804199  -2340.003906     22.093004
    7371           0      -775.005371   1950.804199  -2700.003906     22.583078
    7372           0      -775.005371   1950.804199  -3060.003418     23.295414
    7373           0      -775.005371   1950.804199  -3420.003418     24.219154
    7374           0      -775.005371   1950.804199  -3780.003418     25.343950
    7375           0      -775.005371   1950.804199  -4140.003906     26.651077
    7376           0      -775.005371   1950.804199  -4500.003906     28.126106
    7377           0      -775.005371   1950.804199  -4860.003906     29.755758
    7378           0      -775.005371   1950.804199  -5220.003906     31.532488
    7379           0      -775.005371   1950.804199  -5580.003906     33.452095
    7380           0      -775.005371   1950.804199  -5940.003906     35.513119
    7381           0      -775.005371   1950.804199  -6300.003906     37.714851
    7382           0      -775.005371   1950.804199  -6660.003906     40.056164
    7383           0      -775.005371   1950.804199  -7020.003906     42.534767
    7384           0      -775.005371   1950.804199  -7380.003906     45.146591
    7385           0      -775.005371   1950.804199  -7740.003906     47.885914
    7386           0      -775.005371   1950.804199  -8100.003906     50.744888
    7387           0      -775.005371   1950.804199  -8460.003906     53.714386
    7388           0      -775.005371   1950.804199  -8820.003906     56.783726
    7389           0      -775.005371   1950.804199  -9180.003906     59.942631
    7390           0      -775.005371   1950.804199  -9540.003906     63.180912
    7391           0      -775.005371   1950.804199  -9900.003906     66.492027
    7392           0      -775.005371   1950.804199  -10260.00390     69.869164
    7393           0      -775.005371   1950.804199  -10620.00390     73.311974
    7394           0      -775.005371   1950.804199  -10980.00390     76.815582
    7395           0      -775.005371   1950.804199  -11340.00390     80.388260
    7396           0      -775.005371   1950.804199  -11700.00390     84.011299
    7397           0      -775.005371   1950.804199  -12060.00390     87.728935
    7398           0      -775.005371   1950.804199  -12420.00390     91.444107
    7399           0      -775.005371   1950.804199  -12780.00390     95.379791
    7400           0      -775.005371   1950.804199  -13140.00390     99.071014
    7401           0      -775.005371   1950.804199  -13500.00390    103.338074
    7402           0      -775.005371   1950.804199  -13860.00390    107.843163
    7403           0      -775.005371   1950.804199  -14220.00293    106.431900
    7404           0      -887.123413   1902.441162   -180.003326     24.589922
    7405           0      -887.123413   1902.441162   -540.003357     24.137854
    7406           0      -887.123413   1902.441162   -900.003418     23.668604
    7407           0      -887.123413   1902.441162  -1260.003418     23.388275
    7408           0      -887.123413   1902.441162  -1620.003418     23.243700
    7409           0      -887.123413   1902.441162  -1980.003418     23.325434
    7410           0      -887.123413   1902.441162  -2340.003418     23.618528
    7411           0      -887.123413   1902.441162  -2700.003418     24.146725
    7412           0      -887.123413   1902.441162  -3060.003418     24.907103
    7413           0      -887.123413   1902.441162  -3420.003418     25.885990
    7414           0      -887.123413   1902.441162  -3780.003662     27.068184
    7415           0      -887.123413   1902.441162  -4140.003418     28.430344
    7416           0      -887.123413   1902.441162  -4500.003906     29.954987
    7417           0      -887.123413   1902.441162  -4860.003906     31.625959
    7418           0      -887.123413   1902.441162  -5220.003906     33.432507
    7419           0      -887.123413   1902.441162  -5580.003418     35.365383
    7420           0      -887.123413   1902.441162  -5940.003418     37.416832
    7421           0      -887.123413   1902.441162  -6300.003906     39.579185
    7422           0      -887.123413   1902.441162  -6660.003906     41.845417
    7423           0      -887.123413   1902.441162  -7020.003906     44.209225
    7424           0      -887.123413   1902.441162  -7380.003418     46.665565
    7425           0      -887.123413   1902.441162  -7740.003906     49.210266
    7426           0      -887.123413   1902.441162  -8100.003906     51.839813
    7427           0      -887.123413   1902.441162  -8460.003906     54.550217
    7428           0      -887.123413   1902.441162  -8820.003906     57.336937
    7429           0      -887.123474   1902.441162  -9180.003906     60.194046
    7430           0      -887.123474   1902.441162  -9540.002930     63.115490
    7431           0      -887.123474   1902.441162  -9900.003906     66.096046
    7432           0      -887.123474   1902.441162  -10260.00390     69.131790
    7433           0      -887.123474   1902.441162  -10620.00390     72.224174
    7434           0      -887.123474   1902.441162  -10980.00390     75.369560
    7435           0      -887.123474   1902.441162  -11340.00390     78.581917
    7436           0      -887.123474   1902.441162  -11700.00390     81.841812
    7437           0      -887.123474   1902.441162  -12060.00390     85.199837
    7438           0      -887.123474   1902.441162  -12420.00390     88.557266
    7439           0      -887.123474   1902.441162  -12780.00390     92.135582
    7440           0      -887.123535   1902.441162  -13140.00390     95.492500
    7441           0      -887.123535   1902.441162  -13500.00390     99.390022
    7442           0      -887.123535   1902.441162  -13860.00390    103.554802
    7443           0      -887.123474   1902.441162  -14220.00293    102.116959
    7444           0      -996.239624   1847.640869   -180.003326     26.494814
    7445           0      -996.239624   1847.640869   -540.003357     25.998552
    7446           0      -996.239624   1847.640869   -900.003418     25.482706
    7447           0      -996.239624   1847.640869  -1260.003418     25.141510
    7448           0      -996.239624   1847.640869  -1620.003418     24.952469
    7449           0      -996.239624   1847.640869  -1980.003540     25.005358
    7450           0      -996.239624   1847.640869  -2340.003662     25.284170
    7451           0      -996.239624   1847.640869  -2700.003662     25.820303
    7452           0      -996.239624   1847.640869  -3060.003418     26.606886
    7453           0      -996.239624   1847.640869  -3420.003906     27.630154
    7454           0      -996.239624   1847.640869  -3780.003906     28.871756
    7455           0      -996.239685   1847.640869  -4140.003906     30.306566
    7456           0      -996.239685   1847.640869  -4500.003906     31.914707
    7457           0      -996.239685   1847.640869  -4860.003906     33.675217
    7458           0      -996.239685   1847.640869  -5220.003906     35.568901
    7459           0      -996.239685   1847.640869  -5580.003906     37.574482
    7460           0      -996.239685   1847.640869  -5940.003418     39.670494
    7461           0      -996.239685   1847.640869  -6300.003906     41.835987
    7462           0      -996.239685   1847.640869  -6660.003906     44.053295
    7463           0      -996.239685   1847.640869  -7020.003906     46.309299
    7464           0      -996.239685   1847.640869  -7380.003906     48.596882
    7465           0      -996.239685   1847.640869  -7740.003906     50.914215
    7466           0      -996.239685   1847.640869  -8100.003418     53.264256
    7467           0      -996.239685   1847.640869  -8460.003906     55.652000
    7468           0      -996.239685   1847.640869  -8820.003906     58.083401
    7469           0      -996.239746   1847.640869  -9180.003906     60.562119
    7470           0      -996.239746   1847.640869  -9540.003906     63.090256
    7471           0      -996.239746   1847.640869  -9900.003906     65.667152
    7472           0      -996.239746   1847.640869  -10260.00390     68.291748
    7473           0      -996.239746   1847.640869  -10620.00390     70.966690
    7474           0      -996.239746   1847.640869  -10980.00390     73.690102
    7475           0      -996.239746   1847.640869  -11340.00390     76.478279
    7476           0      -996.239746   1847.640869  -11700.00390     79.314125
    7477           0      -996.239746   1847.640869  -12060.00390     82.249733
    7478           0      -996.239746   1847.640869  -12420.00390     85.192116
    7479           0      -996.239746   1847.640869  -12780.00390     88.346886
    7480           0      -996.239746   1847.640869  -13140.00390     91.318306
    7481           0      -996.239746   1847.640869  -13500.00390     94.770065
    7482           0      -996.239746   1847.640869  -13860.00390     98.540359
    7483           0      -996.239685   1847.640869  -14220.00293     97.049805
    7484           0     -1101.984863   1786.588867   -180.003326     28.910362
    7485           0     -1101.984863   1786.588867   -540.003357     28.328991
    7486           0     -1101.984863   1786.588867   -900.003418     27.709513
    7487           0     -1101.984863   1786.588867  -1260.003418     27.234602
    7488           0     -1101.984863   1786.588867  -1620.003418     26.944235
    7489           0     -1101.984863   1786.588867  -1980.003540     26.905226
    7490           0     -1101.984863   1786.588867  -2340.003906     27.110155
    7491           0     -1101.984863   1786.588867  -2700.003906     27.596161
    7492           0     -1101.984863   1786.588867  -3060.003418     28.355169
    7493           0     -1101.984863   1786.588867  -3420.003418     29.377583
    7494           0     -1101.984863   1786.588867  -3780.003418     30.646318
    7495           0     -1101.984863   1786.588867  -4140.003906     32.138290
    7496           0     -1101.984863   1786.588867  -4500.003906     33.831112
    7497           0     -1101.984863   1786.588867  -4860.003906     35.695442
    7498           0     -1101.984863   1786.588867  -5220.003906     37.697708
    7499           0     -1101.984863   1786.588867  -5580.003906     39.798878
    7500           0     -1101.984863   1786.588867  -5940.003906     41.959316
    7501           0     -1101.984863   1786.588867  -6300.003906     44.142265
    7502           0     -1101.984863   1786.588867  -6660.003906     46.317867
    7503           0     -1101.984863   1786.588867  -7020.003906     48.465668
    7504           0     -1101.984863   1786.588867  -7380.003906     50.575577
    7505           0     -1101.984863   1786.588867  -7740.003906     52.647896
    7506           0     -1101.984863   1786.588867  -8100.003906     54.691311
    7507           0     -1101.984863   1786.588867  -8460.003906     56.720844
    7508           0     -1101.984863   1786.588867  -8820.003906     58.753780
    7509           0     -1101.984863   1786.588867  -9180.003906     60.807251
    7510           0     -1101.984863   1786.588867  -9540.003906     62.893639
    7511           0     -1101.984863   1786.588867  -9900.003906     65.021927
    7512           0     -1101.984863   1786.588867  -10260.00390     67.194016
    7513           0     -1101.984863   1786.588867  -10620.00390     69.414543
    7514           0     -1101.984863   1786.588867  -10980.00390     71.681519
    7515           0     -1101.984863   1786.588867  -11340.00390     74.011002
    7516           0     -1101.984863   1786.588867  -11700.00390     76.387939
    7517           0     -1101.984863   1786.588867  -12060.00390     78.863297
    7518           0     -1101.984863   1786.588867  -12420.00390     81.355064
    7519           0     -1101.984863   1786.588867  -12780.00390     84.041420
    7520           0     -1101.984863   1786.588867  -13140.00390     86.594292
    7521           0     -1101.984863   1786.588867  -13500.00390     89.541824
    7522           0     -1101.984863   1786.588867  -13860.00390     92.880417
    7523           0     -1101.984863   1786.588867  -14220.00293     91.322632
    7524           0     -1204.001465   1719.491333   -180.003326     31.855370
    7525           0     -1204.001465   1719.491333   -540.003357     31.160044
    7526           0     -1204.001465   1719.491333   -900.003418     30.385096
    7527           0     -1204.001465   1719.491333  -1260.003418     29.705355
    7528           0     -1204.001465   1719.491333  -1620.003418     29.259172
    7529           0     -1204.001465   1719.491333  -1980.003418     29.060198
    7530           0     -1204.001465   1719.491333  -2340.003418     29.122843
    7531           0     -1204.001465   1719.491333  -2700.003418     29.484829
    7532           0     -1204.001465   1719.491333  -3060.003418     30.141958
    7533           0     -1204.001465   1719.491333  -3420.003418     31.094065
    7534           0     -1204.001465   1719.491333  -3780.003662     32.330387
    7535           0     -1204.001465   1719.491333  -4140.003418     33.831886
    7536           0     -1204.001465   1719.491333  -4500.003906     35.570992
    7537           0     -1204.001465   1719.491333  -4860.003906     37.505264
    7538           0     -1204.001465   1719.491333  -5220.003906     39.582764
    7539           0     -1204.001465   1719.491333  -5580.003418     41.745358
    7540           0     -1204.001465   1719.491333  -5940.003418     43.936577
    7541           0     -1204.001465   1719.491333  -6300.003906     46.106583
    7542           0     -1204.001465   1719.491333  -6660.003906     48.216370
    7543           0     -1204.001465   1719.491333  -7020.003906     50.239822
    7544           0     -1204.001465   1719.491333  -7380.003418     52.164326
    7545           0     -1204.001465   1719.491333  -7740.003906     53.990391
    7546           0     -1204.001465   1719.491333  -8100.003906     55.729893
    7547           0     -1204.001465   1719.491333  -8460.003906     57.403976
    7548           0     -1204.001465   1719.491333  -8820.003906     59.039089
    7549           0     -1204.001465   1719.491333  -9180.003906     60.663765
    7550           0     -1204.001465   1719.491333  -9540.002930     62.302650
    7551           0     -1204.001465   1719.491333  -9900.003906     63.975685
    7552           0     -1204.001465   1719.491333  -10260.00390     65.691772
    7553           0     -1204.001465   1719.491333  -10620.00390     67.457581
    7554           0     -1204.001465   1719.491333  -10980.00390     69.270256
    7555           0     -1204.001465   1719.491333  -11340.00390     71.142601
    7556           0     -1204.001465   1719.491333  -11700.00390     73.061287
    7557           0     -1204.001465   1719.491333  -12060.00390     75.070732
    7558           0     -1204.001465   1719.491333  -12420.00390     77.108688
    7559           0     -1204.001465   1719.491333  -12780.00390     79.309586
    7560           0     -1204.001465   1719.491333  -13140.00390     81.440765
    7561           0     -1204.001465   1719.491333  -13500.00390     83.851364
    7562           0     -1204.001465   1719.491333  -13860.00390     86.748177
    7563           0     -1204.001465   1719.491333  -14220.00293     85.125343
    7564           0     -1301.944092   1646.575928   -180.003326     35.236042
    7565           0     -1301.944092   1646.575928   -540.003357     34.412472
    7566           0     -1301.944092   1646.575928   -900.003418     33.458179
    7567           0     -1301.944092   1646.575928  -1260.003418     32.522289
    7568           0     -1301.944092   1646.575928  -1620.003418     31.888243
    7569           0     -1301.944092   1646.575928  -1980.003540     31.476761
    7570           0     -1301.944092   1646.575928  -2340.003662     31.342190
    7571           0     -1301.944092   1646.575928  -2700.003662     31.513607
    7572           0     -1301.944092   1646.575928  -3060.003418     31.997923
    7573           0     -1301.944092   1646.575928  -3420.003906     32.807545
    7574           0     -1301.944092   1646.575928  -3780.003906     33.940212
    7575           0     -1301.944092   1646.575928  -4140.003906     35.378490
    7576           0     -1301.944092   1646.575928  -4500.003906     37.085106
    7577           0     -1301.944092   1646.575928  -4860.003906     39.002083
    7578           0     -1301.944092   1646.575928  -5220.003906     41.060757
    7579           0     -1301.944092   1646.575928  -5580.003906     43.189308
    7580           0     -1301.944092   1646.575928  -5940.003418     45.321823
    7581           0     -1301.944092   1646.575928  -6300.003906     47.402718
    7582           0     -1301.944092   1646.575928  -6660.003906     49.389790
    7583           0     -1301.944092   1646.575928  -7020.003906     51.254749
    7584           0     -1301.944092   1646.575928  -7380.003906     52.983257
    7585           0     -1301.944092   1646.575928  -7740.003906     54.574005
    7586           0     -1301.944092   1646.575928  -8100.003418     56.037815
    7587           0     -1301.944092   1646.575928  -8460.003906     57.395863
    7588           0     -1301.944092   1646.575928  -8820.003906     58.677570
    7589           0     -1301.944092   1646.575928  -9180.003906     59.916981
    7590           0     -1301.944092   1646.575928  -9540.003906     61.148438
    7591           0     -1301.944092   1646.575928  -9900.003906     62.401947
    7592           0     -1301.944092   1646.575928  -10260.00390     63.696732
    7593           0     -1301.944092   1646.575928  -10620.00390     65.043701
    7594           0     -1301.944092   1646.575928  -10980.00390     66.440292
    7595           0     -1301.944092   1646.575928  -11340.00390     67.893677
    7596           0     -1301.944092   1646.575928  -11700.00390     69.392097
    7597           0     -1301.944092   1646.575928  -12060.00390     70.966690
    7598           0     -1301.944092   1646.575928  -12420.00390     72.582588
    7599           0     -1301.944092   1646.575928  -12780.00390     74.317696
    7600           0     -1301.944092   1646.575928  -13140.00390     76.054474
    7601           0     -1301.944092   1646.575928  -13500.00390     77.937706
    7602           0     -1301.944092   1646.575928  -13860.00390     80.404778
    7603           0     -1301.944092   1646.575928  -14220.00293     78.757256
    7604           0     -1395.481201   1568.088745   -180.003326     38.817944
    7605           0     -1395.481201   1568.088745   -540.003357     37.883984
    7606           0     -1395.481201   1568.088745   -900.003418     36.761093
    7607           0     -1395.481201   1568.088745  -1260.003418     35.560863
    7608           0     -1395.481201   1568.088745  -1620.003418     34.744392
    7609           0     -1395.481201   1568.088745  -1980.003540     34.105892
    7610           0     -1395.481201   1568.088745  -2340.003906     33.756657
    7611           0     -1395.481201   1568.088745  -2700.003906     33.707081
    7612           0     -1395.481201   1568.088745  -3060.003418     33.981003
    7613           0     -1395.481201   1568.088745  -3420.003418     34.600452
    7614           0     -1395.481201   1568.088745  -3780.003418     35.567032
    7615           0     -1395.481201   1568.088745  -4140.003906     36.858410
    7616           0     -1395.481201   1568.088745  -4500.003906     38.425247
    7617           0     -1395.481201   1568.088745  -4860.003906     40.198200
    7618           0     -1395.481201   1568.088745  -5220.003906     42.101028
    7619           0     -1395.481201   1568.088745  -5580.003906     44.059563
    7620           0     -1395.481201   1568.088745  -5940.003906     46.009129
    7621           0     -1395.481201   1568.088745  -6300.003906     47.897182
    7622           0     -1395.481201   1568.088745  -6660.003906     49.684258
    7623           0     -1395.481201   1568.088745  -7020.003906     51.343372
    7624           0     -1395.481201   1568.088745  -7380.003906     52.859184
    7625           0     -1395.481201   1568.088745  -7740.003906     54.227245
    7626           0     -1395.481201   1568.088745  -8100.003906     55.453468
    7627           0     -1395.481201   1568.088745  -8460.003906     56.553680
    7628           0     -1395.481201   1568.088745  -8820.003906     57.552837
    7629           0     -1395.481201   1568.088745  -9180.003906     58.483421
    7630           0     -1395.481201   1568.088745  -9540.003906     59.382240
    7631           0     -1395.481201   1568.088745  -9900.003906     60.286304
    7632           0     -1395.481201   1568.088745  -10260.00390     61.224693
    7633           0     -1395.481201   1568.088745  -10620.00390     62.216732
    7634           0     -1395.481201   1568.088745  -10980.00390     63.263416
    7635           0     -1395.481201   1568.088745  -11340.00390     64.366547
    7636           0     -1395.481201   1568.088745  -11700.00390     65.514229
    7637           0     -1395.481201   1568.088745  -12060.00390     66.720093
    7638           0     -1395.481201   1568.088745  -12420.00390     67.978363
    7639           0     -1395.481201   1568.088745  -12780.00390     69.305260
    7640           0     -1395.481201   1568.088745  -13140.00390     70.706749
    7641           0     -1395.481201   1568.088745  -13500.00390     72.113380
    7642           0     -1395.481201   1568.088745  -13860.00390     74.200287
    7643           0     -1395.481201   1568.088745  -14220.00293     72.582939
    7644           0     -1484.296631   1484.295654   -180.003326     42.251686
    7645           0     -1484.296631   1484.295654   -540.003357     41.257610
    7646           0     -1484.296631   1484.295654   -900.003418     40.019634
    7647           0     -1484.296631   1484.295654  -1260.003418     38.600952
    7648           0     -1484.296631   1484.295654  -1620.003418     37.653034
    7649           0     -1484.296631   1484.295654  -1980.003418     36.824928
    7650           0     -1484.296631   1484.295654  -2340.003418     36.297958
    7651           0     -1484.296631   1484.295654  -2700.003418     36.054886
    7652           0     -1484.296631   1484.295654  -3060.003418     36.137112
    7653           0     -1484.296631   1484.295654  -3420.003418     36.564320
    7654           0     -1484.296631   1484.295654  -3780.003662     37.331680
    7655           0     -1484.296631   1484.295654  -4140.003418     38.406506
    7656           0     -1484.296631   1484.295654  -4500.003906     39.731964
    7657           0     -1484.296631   1484.295654  -4860.003906     41.238773
    7658           0     -1484.296631   1484.295654  -5220.003906     42.856548
    7659           0     -1484.296631   1484.295654  -5580.003418     44.520500
    7660           0     -1484.296631   1484.295654  -5940.003418     46.175732
    7661           0     -1484.296631   1484.295654  -6300.003906     47.778042
    7662           0     -1484.296631   1484.295654  -6660.003906     49.293648
    7663           0     -1484.296631   1484.295654  -7020.003906     50.698273
    7664           0     -1484.296631   1484.295654  -7380.003418     51.976284
    7665           0     -1484.296631   1484.295654  -7740.003906     53.120167
    7666           0     -1484.296631   1484.295654  -8100.003906     54.130386
    7667           0     -1484.296631   1484.295654  -8460.003906     55.015556
    7668           0     -1484.296631   1484.295654  -8820.003906     55.792797
    7669           0     -1484.296631   1484.295654  -9180.003906     56.487770
    7670           0     -1484.296631   1484.295654  -9540.002930     57.133301
    7671           0     -1484.296631   1484.295654  -9900.003906     57.767284
    7672           0     -1484.296631   1484.295776  -10260.00390     58.425793
    7673           0     -1484.296631   1484.295776  -10620.00390     59.137630
    7674           0     -1484.296631   1484.295776  -10980.00390     59.912804
    7675           0     -1484.296631   1484.295776  -11340.00390     60.750237
    7676           0     -1484.296631   1484.295776  -11700.00390     61.637737
    7677           0     -1484.296631   1484.295776  -12060.00390     62.566067
    7678           0     -1484.296631   1484.295776  -12420.00390     63.557762
    7679           0     -1484.296631   1484.295776  -12780.00390     64.565041
    7680           0     -1484.296631   1484.295776  -13140.00390     65.716568
    7681           0     -1484.296631   1484.295776  -13500.00390     66.737686
    7682           0     -1484.296631   1484.295776  -13860.00390     68.519844
    7683           0     -1484.296631   1484.295654  -14220.00293     67.005722
    7684           0     -1568.089478   1395.480347   -180.003326     45.118008
    7685           0     -1568.089478   1395.480347   -540.003357     44.139626
    7686           0     -1568.089478   1395.480347   -900.003418     42.884800
    7687           0     -1568.089478   1395.480347  -1260.003418     41.348747
    7688           0     -1568.089478   1395.480347  -1620.003418     40.364849
    7689           0     -1568.089478   1395.480347  -1980.003540     39.439907
    7690           0     -1568.089478   1395.480347  -2340.003662     38.830322
    7691           0     -1568.089478   1395.480347  -2700.003662     38.484470
    7692           0     -1568.089478   1395.480347  -3060.003418     38.453560
    7693           0     -1568.089478   1395.480347  -3420.003906     38.738918
    7694           0     -1568.089478   1395.480347  -3780.003906     39.322334
    7695           0     -1568.089478   1395.480347  -4140.003906     40.164413
    7696           0     -1568.089478   1395.480347  -4500.003906     41.212872
    7697           0     -1568.089478   1395.480347  -4860.003906     42.411015
    7698           0     -1568.089478   1395.480347  -5220.003906     43.702900
    7699           0     -1568.089478   1395.480347  -5580.003906     45.036690
    7700           0     -1568.089478   1395.480347  -5940.003418     46.366821
    7701           0     -1568.089478   1395.480347  -6300.003906     47.654915
    7702           0     -1568.089478   1395.480347  -6660.003906     48.870232
    7703           0     -1568.089478   1395.480347  -7020.003906     49.989735
    7704           0     -1568.089478   1395.480347  -7380.003906     50.998096
    7705           0     -1568.089478   1395.480347  -7740.003906     51.887287
    7706           0     -1568.089478   1395.480347  -8100.003418     52.656654
    7707           0     -1568.089478   1395.480347  -8460.003906     53.312290
    7708           0     -1568.089478   1395.480347  -8820.003906     53.867825
    7709           0     -1568.089478   1395.480347  -9180.003906     54.343899
    7710           0     -1568.089478   1395.480347  -9540.003906     54.769035
    7711           0     -1568.089478   1395.480347  -9900.003906     55.177700
    7712           0     -1568.089478   1395.480347  -10260.00390     55.608692
    7713           0     -1568.089478   1395.480347  -10620.00390     56.097855
    7714           0     -1568.089478   1395.480347  -10980.00390     56.667530
    7715           0     -1568.089478   1395.480347  -11340.00390     57.317974
    7716           0     -1568.089478   1395.480347  -11700.00390     58.038746
    7717           0     -1568.089478   1395.480347  -12060.00390     58.791615
    7718           0     -1568.089478   1395.480347  -12420.00390     59.621696
    7719           0     -1568.089478   1395.480347  -12780.00390     60.417046
    7720           0     -1568.089478   1395.480347  -13140.00390     61.418274
    7721           0     -1568.089478   1395.480347  -13500.00390     62.173702
    7722           0     -1568.089478   1395.480347  -13860.00390     63.739834
    7723           0     -1568.089478   1395.480347  -14220.00293     62.411766
    7724           0     -1646.576416   1301.943115   -180.003326     46.983784
    7725           0     -1646.576416   1301.943115   -540.003357     46.124363
    7726           0     -1646.576416   1301.943115   -900.003418     44.981953
    7727           0     -1646.576416   1301.943115  -1260.003418     43.479446
    7728           0     -1646.576416   1301.943115  -1620.003418     42.589233
    7729           0     -1646.576416   1301.943115  -1980.003540     41.707092
    7730           0     -1646.576416   1301.943115  -2340.003906     41.155731
    7731           0     -1646.576416   1301.943115  -2700.003906     40.843441
    7732           0     -1646.576416   1301.943115  -3060.003418     40.818424
    7733           0     -1646.576416   1301.943115  -3420.003418     41.057167
    7734           0     -1646.576416   1301.943115  -3780.003418     41.537132
    7735           0     -1646.576416   1301.943115  -4140.003906     42.227886
    7736           0     -1646.576416   1301.943115  -4500.003906     43.093826
    7737           0     -1646.576416   1301.943115  -4860.003906     44.093277
    7738           0     -1646.576416   1301.943115  -5220.003906     45.178864
    7739           0     -1646.576416   1301.943115  -5580.003906     46.300663
    7740           0     -1646.576416   1301.943115  -5940.003906     47.410099
    7741           0     -1646.576416   1301.943115  -6300.003906     48.463749
    7742           0     -1646.576416   1301.943115  -6660.003906     49.426300
    7743           0     -1646.576416   1301.943115  -7020.003906     50.272339
    7744           0     -1646.576416   1301.943115  -7380.003906     50.987225
    7745           0     -1646.576416   1301.943115  -7740.003906     51.566803
    7746           0     -1646.576416   1301.943115  -8100.003906     52.016888
    7747           0     -1646.576416   1301.943115  -8460.003906     52.351521
    7748           0     -1646.576416   1301.943115  -8820.003906     52.592316
    7749           0     -1646.576416   1301.943115  -9180.003906     52.766518
    7750           0     -1646.576416   1301.943115  -9540.003906     52.906864
    7751           0     -1646.576416   1301.943115  -9900.003906     53.050041
    7752           0     -1646.576416   1301.943115  -10260.00390     53.235725
    7753           0     -1646.576416   1301.943115  -10620.00390     53.504826
    7754           0     -1646.576416   1301.943115  -10980.00390     53.890347
    7755           0     -1646.576416   1301.943115  -11340.00390     54.398819
    7756           0     -1646.576416   1301.943115  -11700.00390     55.024437
    7757           0     -1646.576416   1301.943115  -12060.00390     55.697613
    7758           0     -1646.576416   1301.943115  -12420.00390     56.469456
    7759           0     -1646.576416   1301.943115  -12780.00390     57.166561
    7760           0     -1646.576416   1301.943115  -13140.00390     58.116215
    7761           0     -1646.576416   1301.943115  -13500.00390     58.735401
    7762           0     -1646.576416   1301.943115  -13860.00390     60.180126
    7763           0     -1646.576416   1301.943115  -14220.00293     59.100216
    7764           0     -1719.492065   1204.000610   -180.003326     47.488655
    7765           0     -1719.492065   1204.000610   -540.003357     46.872658
    7766           0     -1719.492065   1204.000610   -900.003418     45.984100
    7767           0     -1719.492065   1204.000610  -1260.003418     44.700081
    7768           0     -1719.492065   1204.000610  -1620.003418     44.048878
    7769           0     -1719.492065   1204.000610  -1980.003418     43.376503
    7770           0     -1719.492065   1204.000610  -2340.003418     43.041248
    7771           0     -1719.492065   1204.000610  -2700.003418     42.909378
    7772           0     -1719.492065   1204.000610  -3060.003418     43.019566
    7773           0     -1719.492065   1204.000610  -3420.003418     43.342232
    7774           0     -1719.492065   1204.000610  -3780.003662     43.877171
    7775           0     -1719.492065   1204.000610  -4140.003418     44.618763
    7776           0     -1719.492065   1204.000610  -4500.003906     45.545086
    7777           0     -1719.492065   1204.000610  -4860.003906     46.612797
    7778           0     -1719.492065   1204.000610  -5220.003906     47.761024
    7779           0     -1719.492065   1204.000610  -5580.003418     48.920982
    7780           0     -1719.492065   1204.000610  -5940.003418     50.025032
    7781           0     -1719.492065   1204.000610  -6300.003906     51.014366
    7782           0     -1719.492065   1204.000610  -6660.003906     51.843433
    7783           0     -1719.492065   1204.000610  -7020.003906     52.482544
    7784           0     -1719.492065   1204.000610  -7380.003418     52.918148
    7785           0     -1719.492065   1204.000610  -7740.003906     53.152668
    7786           0     -1719.492065   1204.000610  -8100.003906     53.202991
    7787           0     -1719.492065   1204.000610  -8460.003906     53.098915
    7788           0     -1719.492065   1204.000610  -8820.003906     52.880337
    7789           0     -1719.492065   1204.000610  -9180.003906     52.595139
    7790           0     -1719.492065   1204.000610  -9540.002930     52.294800
    7791           0     -1719.492065   1204.000488  -9900.003906     52.033791
    7792           0     -1719.492065   1204.000488  -10260.00390     51.862549
    7793           0     -1719.492065   1204.000488  -10620.00390     51.830395
    7794           0     -1719.492065   1204.000488  -10980.00390     51.980766
    7795           0     -1719.492065   1204.000488  -11340.00390     52.329494
    7796           0     -1719.492065   1204.000488  -11700.00390     52.882740
    7797           0     -1719.492065   1204.000488  -12060.00390     53.542671
    7798           0     -1719.492065   1204.000488  -12420.00390     54.347214
    7799           0     -1719.492065   1204.000488  -12780.00390     55.053959
    7800           0     -1719.492065   1204.000488  -13140.00390     56.043877
    7801           0     -1719.492065   1204.000488  -13500.00390     56.648262
    7802           0     -1719.492065   1204.000488  -13860.00390     58.066021
    7803           0     -1719.492065   1204.000610  -14220.00293     57.260490
    7804           0     -1786.589355   1101.984009   -180.003326     46.459972
    7805           0     -1786.589355   1101.984009   -540.003357     46.202957
    7806           0     -1786.589355   1101.984009   -900.003418     45.701473
    7807           0     -1786.589355   1101.984009  -1260.003418     44.822548
    7808           0     -1786.589355   1101.984009  -1620.003418     44.546593
    7809           0     -1786.589355   1101.984009  -1980.003540     44.245632
    7810           0     -1786.589355   1101.984009  -2340.003662     44.260715
    7811           0     -1786.589355   1101.984009  -2700.003662     44.427151
    7812           0     -1786.589355   1101.984009  -3060.003418     44.791782
    7813           0     -1786.589355   1101.984009  -3420.003906     45.363907
    7814           0     -1786.589355   1101.984009  -3780.003906     46.187607
    7815           0     -1786.589355   1101.984009  -4140.003906     47.271584
    7816           0     -1786.589355   1101.984009  -4500.003906     48.577156
    7817           0     -1786.589355   1101.984009  -4860.003906     50.026962
    7818           0     -1786.589355   1101.984009  -5220.003906     51.523060
    7819           0     -1786.589355   1101.984009  -5580.003906     52.965706
    7820           0     -1786.589355   1101.984009  -5940.003418     54.266026
    7821           0     -1786.589355   1101.984009  -6300.003906     55.353043
    7822           0     -1786.589355   1101.984009  -6660.003906     56.176109
    7823           0     -1786.589355   1101.984009  -7020.003906     56.705254
    7824           0     -1786.589355   1101.984009  -7380.003906     56.930218
    7825           0     -1786.589355   1101.984009  -7740.003906     56.858929
    7826           0     -1786.589355   1101.984009  -8100.003418     56.516781
    7827           0     -1786.589355   1101.984009  -8460.003906     55.945404
    7828           0     -1786.589355   1101.984009  -8820.003906     55.201057
    7829           0     -1786.589355   1101.984009  -9180.003906     54.352924
    7830           0     -1786.589355   1101.984009  -9540.003906     53.478580
    7831           0     -1786.589355   1101.984009  -9900.003906     52.660934
    7832           0     -1786.589355   1101.984009  -10260.00390     51.981529
    7833           0     -1786.589355   1101.984009  -10620.00390     51.510159
    7834           0     -1786.589355   1101.984009  -10980.00390     51.310410
    7835           0     -1786.589355   1101.984009  -11340.00390     51.413486
    7836           0     -1786.589355   1101.984009  -11700.00390     51.849316
    7837           0     -1786.589355   1101.984009  -12060.00390     52.510735
    7838           0     -1786.589355   1101.984009  -12420.00390     53.414524
    7839           0     -1786.589355   1101.984009  -12780.00390     54.234402
    7840           0     -1786.589478   1101.984009  -13140.00390     55.355095
    7841           0     -1786.589478   1101.984009  -13500.00390     56.064865
    7842           0     -1786.589478   1101.984009  -13860.00390     57.546337
    7843           0     -1786.589355   1101.984009  -14220.00293     57.032604
    7844           0     -1847.641357    996.238708   -180.003326     44.058685
    7845           0     -1847.641357    996.238708   -540.003357     44.248081
    7846           0     -1847.641357    996.238708   -900.003418     44.197151
    7847           0     -1847.641357    996.238708  -1260.003418     43.866276
    7848           0     -1847.641357    996.238708  -1620.003418     44.049263
    7849           0     -1847.641357    996.238708  -1980.003540     44.225693
    7850           0     -1847.641357    996.238708  -2340.003906     44.648151
    7851           0     -1847.641357    996.238708  -2700.003906     45.168793
    7852           0     -1847.641357    996.238708  -3060.003418     45.893417
    7853           0     -1847.641357    996.238708  -3420.003418     46.911190
    7854           0     -1847.641357    996.238708  -3780.003418     48.285702
    7855           0     -1847.641357    996.238708  -4140.003906     49.987804
    7856           0     -1847.641357    996.238708  -4500.003906     51.916271
    7857           0     -1847.641357    996.238708  -4860.003906     53.937546
    7858           0     -1847.641357    996.238708  -5220.003906     55.915913
    7859           0     -1847.641357    996.238708  -5580.003906     57.733891
    7860           0     -1847.641357    996.238708  -5940.003906     59.299267
    7861           0     -1847.641357    996.238708  -6300.003906     60.545975
    7862           0     -1847.641357    996.238708  -6660.003906     61.431519
    7863           0     -1847.641357    996.238708  -7020.003906     61.933853
    7864           0     -1847.641357    996.238770  -7380.003906     62.049149
    7865           0     -1847.641357    996.238770  -7740.003906     61.789318
    7866           0     -1847.641357    996.238770  -8100.003906     61.181969
    7867           0     -1847.641357    996.238770  -8460.003906     60.270245
    7868           0     -1847.641357    996.238770  -8820.003906     59.113300
    7869           0     -1847.641357    996.238770  -9180.003906     57.787025
    7870           0     -1847.641357    996.238770  -9540.003906     56.382687
    7871           0     -1847.641357    996.238770  -9900.003906     55.005272
    7872           0     -1847.641357    996.238770  -10260.00390     53.766884
    7873           0     -1847.641357    996.238770  -10620.00390     52.775215
    7874           0     -1847.641357    996.238770  -10980.00390     52.126553
    7875           0     -1847.641357    996.238770  -11340.00390     51.882454
    7876           0     -1847.641357    996.238770  -11700.00390     52.108467
    7877           0     -1847.641357    996.238770  -12060.00390     52.725624
    7878           0     -1847.641357    996.238770  -12420.00390     53.754086
    7879           0     -1847.641357    996.238770  -12780.00390     54.788513
    7880           0     -1847.641357    996.238770  -13140.00390     56.150070
    7881           0     -1847.641357    996.238770  -13500.00390     57.106647
    7882           0     -1847.641357    996.238770  -13860.00390     58.768990
    7883           0     -1847.641357    996.238770  -14220.00293     58.569115
    7884           0     -1902.441650    887.122437   -180.003326     41.052540
    7885           0     -1902.441650    887.122437   -540.003357     41.672787
    7886           0     -1902.441650    887.122437   -900.003418     41.972248
    7887           0     -1902.441650    887.122437  -1260.003418     42.198589
    7888           0     -1902.441650    887.122437  -1620.003418     42.801121
    7889           0     -1902.441650    887.122437  -1980.003418     43.418190
    7890           0     -1902.441650    887.122437  -2340.003418     44.159962
    7891           0     -1902.441650    887.122437  -2700.003418     45.005920
    7892           0     -1902.441650    887.122437  -3060.003418     46.180092
    7893           0     -1902.441650    887.122437  -3420.003418     47.823212
    7894           0     -1902.441650    887.122437  -3780.003662     49.927788
    7895           0     -1902.441650    887.122437  -4140.003418     52.362293
    7896           0     -1902.441650    887.122375  -4500.003906     54.944157
    7897           0     -1902.441650    887.122375  -4860.003906     57.499035
    7898           0     -1902.441650    887.122375  -5220.003906     59.883133
    7899           0     -1902.441650    887.122375  -5580.003418     61.991390
    7900           0     -1902.441650    887.122375  -5940.003418     63.752003
    7901           0     -1902.441650    887.122375  -6300.003906     65.120483
    7902           0     -1902.441650    887.122375  -6660.003906     66.072830
    7903           0     -1902.441650    887.122375  -7020.003906     66.600868
    7904           0     -1902.441650    887.122375  -7380.003418     66.708817
    7905           0     -1902.441650    887.122375  -7740.003906     66.412170
    7906           0     -1902.441650    887.122375  -8100.003906     65.736725
    7907           0     -1902.441650    887.122375  -8460.003906     64.719887
    7908           0     -1902.441650    887.122375  -8820.003906     63.412228
    7909           0     -1902.441650    887.122375  -9180.003906     61.880402
    7910           0     -1902.441650    887.122375  -9540.002930     60.208797
    7911           0     -1902.441650    887.122375  -9900.003906     58.502411
    7912           0     -1902.441650    887.122375  -10260.00390     56.882225
    7913           0     -1902.441650    887.122375  -10620.00390     55.482395
    7914           0     -1902.441650    887.122375  -10980.00390     54.434883
    7915           0     -1902.441650    887.122375  -11340.00390     53.839985
    7916           0     -1902.441650    887.122375  -11700.00390     53.805115
    7917           0     -1902.441650    887.122375  -12060.00390     54.308441
    7918           0     -1902.441650    887.122375  -12420.00390     55.434429
    7919           0     -1902.441650    887.122375  -12780.00390     56.761158
    7920           0     -1902.441650    887.122375  -13140.00390     58.500553
    7921           0     -1902.441650    887.122375  -13500.00390     59.895176
    7922           0     -1902.441650    887.122375  -13860.00390     61.902790
    7923           0     -1902.441650    887.122375  -14220.00293     62.076176
    7924           0     -1950.804565    775.004395   -180.003326     39.130905
    7925           0     -1950.804565    775.004395   -540.003357     39.919090
    7926           0     -1950.804565    775.004395   -900.003418     40.171707
    7927           0     -1950.804565    775.004395  -1260.003418     40.685318
    7928           0     -1950.804565    775.004395  -1620.003418     41.419937
    7929           0     -1950.804565    775.004395  -1980.003540     42.152451
    7930           0     -1950.804565    775.004395  -2340.003662     42.901318
    7931           0     -1950.804565    775.004395  -2700.003662     43.940655
    7932           0     -1950.804565    775.004395  -3060.003418     45.588921
    7933           0     -1950.804565    775.004395  -3420.003906     47.899708
    7934           0     -1950.804565    775.004395  -3780.003906     50.693237
    7935           0     -1950.804565    775.004395  -4140.003906     53.722225
    7936           0     -1950.804565    775.004395  -4500.003906     56.755562
    7937           0     -1950.804565    775.004395  -4860.003906     59.623306
    7938           0     -1950.804565    775.004395  -5220.003906     62.207642
    7939           0     -1950.804565    775.004395  -5580.003906     64.438766
    7940           0     -1950.804565    775.004395  -5940.003418     66.275284
    7941           0     -1950.804565    775.004395  -6300.003906     67.699348
    7942           0     -1950.804565    775.004395  -6660.003906     68.705513
    7943           0     -1950.804565    775.004395  -7020.003906     69.299454
    7944           0     -1950.804565    775.004395  -7380.003906     69.492622
    7945           0     -1950.804565    775.004395  -7740.003906     69.303764
    7946           0     -1950.804565    775.004395  -8100.003418     68.756622
    7947           0     -1950.804565    775.004395  -8460.003906     67.882957
    7948           0     -1950.804565    775.004395  -8820.003906     66.722473
    7949           0     -1950.804565    775.004395  -9180.003906     65.328064
    7950           0     -1950.804565    775.004395  -9540.003906     63.766258
    7951           0     -1950.804565    775.004395  -9900.003906     62.125088
    7952           0     -1950.804565    775.004395  -10260.00390     60.510559
    7953           0     -1950.804565    775.004395  -10620.00390     59.052551
    7954           0     -1950.804565    775.004395  -10980.00390     57.893204
    7955           0     -1950.804565    775.004395  -11340.00390     57.159233
    7956           0     -1950.804565    775.004395  -11700.00390     56.985691
    7957           0     -1950.804565    775.004395  -12060.00390     57.397484
    7958           0     -1950.804565    775.004395  -12420.00390     58.578568
    7959           0     -1950.804565    775.004395  -12780.00390     60.217987
    7960           0     -1950.804565    775.004272  -13140.00390     62.452354
    7961           0     -1950.804565    775.004272  -13500.00390     64.529602
    7962           0     -1950.804565    775.004272  -13860.00390     67.081665
    7963           0     -1950.804565    775.004395  -14220.00293     67.758026
    7964           0     -1992.566650    660.264038   -180.003326     40.708286
    7965           0     -1992.566650    660.264038   -540.003357     41.091377
    7966           0     -1992.566650    660.264038   -900.003418     40.574173
    7967           0     -1992.566650    660.264038  -1260.003418     40.686024
    7968           0     -1992.566650    660.264038  -1620.003418     40.845203
    7969           0     -1992.566650    660.264038  -1980.003540     40.901833
    7970           0     -1992.566650    660.264038  -2340.003906     41.072437
    7971           0     -1992.566650    660.264038  -2700.003906     42.019558
    7972           0     -1992.566650    660.264038  -3060.003418     43.970169
    7973           0     -1992.566650    660.264038  -3420.003418     46.723724
    7974           0     -1992.566650    660.264038  -3780.003418     49.914513
    7975           0     -1992.566650    660.264038  -4140.003906     53.226582
    7976           0     -1992.566650    660.264038  -4500.003906     56.430069
    7977           0     -1992.566650    660.264038  -4860.003906     59.388439
    7978           0     -1992.566650    660.264038  -5220.003906     62.017345
    7979           0     -1992.566650    660.264038  -5580.003906     64.277977
    7980           0     -1992.566650    660.264038  -5940.003906     66.149620
    7981           0     -1992.566650    660.264038  -6300.003906     67.630196
    7982           0     -1992.566650    660.264038  -6660.003906     68.724159
    7983           0     -1992.566650    660.264038  -7020.003906     69.443962
    7984           0     -1992.566650    660.264038  -7380.003906     69.806046
    7985           0     -1992.566650    660.264038  -7740.003906     69.831596
    7986           0     -1992.566650    660.264038  -8100.003906     69.546608
    7987           0     -1992.566650    660.264038  -8460.003906     68.982315
    7988           0     -1992.566650    660.264038  -8820.003906     68.176971
    7989           0     -1992.566650    660.264038  -9180.003906     67.177353
    7990           0     -1992.566650    660.264038  -9540.003906     66.040733
    7991           0     -1992.566650    660.264038  -9900.003906     64.839531
    7992           0     -1992.566650    660.264038  -10260.00390     63.659725
    7993           0     -1992.566650    660.264038  -10620.00390     62.608402
    7994           0     -1992.566650    660.264038  -10980.00390     61.805107
    7995           0     -1992.566650    660.264038  -11340.00390     61.369728
    7996           0     -1992.566650    660.264038  -11700.00390     61.430809
    7997           0     -1992.566650    660.264038  -12060.00390     62.008831
    7998           0     -1992.566650    660.264038  -12420.00390     63.320156
    7999           0     -1992.566650    660.264038  -12780.00390     65.255814
    8000           0     -1992.566650    660.264038  -13140.00390     68.003380
    8001           0     -1992.566650    660.264038  -13500.00390     70.987350
    8002           0     -1992.566650    660.264038  -13860.00390     74.295845
    8003           0     -1992.566650    660.264038  -14220.00293     75.633835
    8004           0     -2027.586426    543.289490   -180.003326     47.342346
    8005           0     -2027.586426    543.289490   -540.003357     46.747833
    8006           0     -2027.586426    543.289490   -900.003418     44.774536
    8007           0     -2027.586426    543.289490  -1260.003418     43.450150
    8008           0     -2027.586426    543.289490  -1620.003418     41.848545
    8009           0     -2027.586426    543.289490  -1980.003418     39.979370
    8010           0     -2027.586426    543.289490  -2340.003418     38.745464
    8011           0     -2027.586426    543.289490  -2700.003418     39.052341
    8012           0     -2027.586426    543.289490  -3060.003418     40.834053
    8013           0     -2027.586426    543.289490  -3420.003418     43.613865
    8014           0     -2027.586426    543.289490  -3780.003662     46.890129
    8015           0     -2027.586426    543.289490  -4140.003418     50.306343
    8016           0     -2027.586426    543.289490  -4500.003906     53.625416
    8017           0     -2027.586426    543.289490  -4860.003906     56.723076
    8018           0     -2027.586426    543.289490  -5220.003906     59.510284
    8019           0     -2027.586426    543.289490  -5580.003418     61.953880
    8020           0     -2027.586426    543.289429  -5940.003418     64.022369
    8021           0     -2027.586426    543.289429  -6300.003906     65.715065
    8022           0     -2027.586426    543.289429  -6660.003906     67.027527
    8023           0     -2027.586426    543.289429  -7020.003906     67.975243
    8024           0     -2027.586426    543.289429  -7380.003418     68.572006
    8025           0     -2027.586426    543.289429  -7740.003906     68.847015
    8026           0     -2027.586426    543.289429  -8100.003906     68.831017
    8027           0     -2027.586426    543.289429  -8460.003906     68.568680
    8028           0     -2027.586426    543.289429  -8820.003906     68.109283
    8029           0     -2027.586426    543.289429  -9180.003906     67.516045
    8030           0     -2027.586426    543.289429  -9540.002930     66.857918
    8031           0     -2027.586426    543.289429  -9900.003906     66.218704
    8032           0     -2027.586426    543.289429  -10260.00390     65.684387
    8033           0     -2027.586426    543.289429  -10620.00390     65.354866
    8034           0     -2027.586426    543.289429  -10980.00390     65.323524
    8035           0     -2027.586426    543.289429  -11340.00390     65.676926
    8036           0     -2027.586426    543.289429  -11700.00390     66.504959
    8037           0     -2027.586426    543.289429  -12060.00390     67.770271
    8038           0     -2027.586426    543.289429  -12420.00390     69.572372
    8039           0     -2027.586426    543.289429  -12780.00390     71.903633
    8040           0     -2027.586426    543.289429  -13140.00390     75.071732
    8041           0     -2027.586426    543.289429  -13500.00390     79.050125
    8042           0     -2027.586426    543.289429  -13860.00390     83.260147
    8043           0     -2027.586426    543.289429  -14220.00293     85.420662
    8044           0     -2055.745605    424.476654   -180.003326     58.388313
    8045           0     -2055.745605    424.476654   -540.003357     56.631687
    8046           0     -2055.745605    424.476654   -900.003418     52.874489
    8047           0     -2055.745605    424.476654  -1260.003418     48.960499
    8048           0     -2055.745605    424.476654  -1620.003418     44.185928
    8049           0     -2055.745605    424.476654  -1980.003540     39.044487
    8050           0     -2055.745605    424.476654  -2340.003662     35.412727
    8051           0     -2055.745605    424.476654  -2700.003662     34.243286
    8052           0     -2055.745605    424.476654  -3060.003418     35.356102
    8053           0     -2055.745605    424.476654  -3420.003906     38.071045
    8054           0     -2055.745605    424.476654  -3780.003906     41.683544
    8055           0     -2055.745605    424.476654  -4140.003906     45.656002
    8056           0     -2055.745605    424.476654  -4500.003906     49.646706
    8057           0     -2055.745605    424.476654  -4860.003906     53.453346
    8058           0     -2055.745605    424.476654  -5220.003906     56.939316
    8059           0     -2055.745605    424.476654  -5580.003906     60.037331
    8060           0     -2055.745605    424.476654  -5940.003418     62.694702
    8061           0     -2055.745605    424.476624  -6300.003906     64.895004
    8062           0     -2055.745605    424.476624  -6660.003906     66.629333
    8063           0     -2055.745605    424.476624  -7020.003906     67.906570
    8064           0     -2055.745605    424.476624  -7380.003906     68.749649
    8065           0     -2055.745605    424.476624  -7740.003906     69.187981
    8066           0     -2055.745605    424.476624  -8100.003418     69.275093
    8067           0     -2055.745605    424.476624  -8460.003906     69.064743
    8068           0     -2055.745605    424.476624  -8820.003906     68.644394
    8069           0     -2055.745605    424.476624  -9180.003906     68.099548
    8070           0     -2055.745605    424.476624  -9540.003906     67.552910
    8071           0     -2055.745605    424.476624  -9900.003906     67.123848
    8072           0     -2055.745605    424.476624  -10260.00390     66.957085
    8073           0     -2055.745605    424.476624  -10620.00390     67.183609
    8074           0     -2055.745605    424.476624  -10980.00390     67.929100
    8075           0     -2055.745605    424.476624  -11340.00390     69.263893
    8076           0     -2055.745605    424.476624  -11700.00390     71.241776
    8077           0     -2055.745605    424.476624  -12060.00390     73.762245
    8078           0     -2055.745605    424.476624  -12420.00390     76.707626
    8079           0     -2055.745605    424.476624  -12780.00390     79.883842
    8080           0     -2055.745605    424.476624  -13140.00390     83.448189
    8081           0     -2055.745605    424.476593  -13500.00390     88.322731
    8082           0     -2055.745605    424.476593  -13860.00390     93.389824
    8083           0     -2055.745605    424.476624  -14220.00293     96.514442
    8084           0     -2076.948730    304.227539   -180.003326     72.006584
    8085           0     -2076.948730    304.227539   -540.003357     69.157448
    8086           0     -2076.948730    304.227539   -900.003418     63.311272
    8087           0     -2076.948730    304.227539  -1260.003418     55.470669
    8088           0     -2076.948730    304.227539  -1620.003418     46.201115
    8089           0     -2076.948730    304.227539  -1980.003540     36.706966
    8090           0     -2076.948730    304.227539  -2340.003906     29.630743
    8091           0     -2076.948730    304.227539  -2700.003906     26.404516
    8092           0     -2076.948730    304.227539  -3060.003418     27.475229
    8093           0     -2076.948730    304.227539  -3420.003418     31.583187
    8094           0     -2076.948730    304.227539  -3780.003418     37.146961
    8095           0     -2076.948730    304.227539  -4140.003906     43.075626
    8096           0     -2076.948730    304.227539  -4500.003906     48.860935
    8097           0     -2076.948730    304.227539  -4860.003906     54.223957
    8098           0     -2076.948730    304.227539  -5220.003906     59.033405
    8099           0     -2076.948730    304.227539  -5580.003906     63.225594
    8100           0     -2076.948730    304.227539  -5940.003906     66.760841
    8101           0     -2076.948730    304.227539  -6300.003906     69.642624
    8102           0     -2076.948730    304.227539  -6660.003906     71.861916
    8103           0     -2076.948730    304.227539  -7020.003906     73.455246
    8104           0     -2076.948730    304.227539  -7380.003906     74.431557
    8105           0     -2076.948730    304.227539  -7740.003906     74.855598
    8106           0     -2076.948730    304.227539  -8100.003906     74.758324
    8107           0     -2076.948730    304.227539  -8460.003906     74.239746
    8108           0     -2076.948730    304.227539  -8820.003906     73.368210
    8109           0     -2076.948730    304.227539  -9180.003906     72.294220
    8110           0     -2076.948730    304.227539  -9540.003906     71.146675
    8111           0     -2076.948730    304.227539  -9900.003906     70.141312
    8112           0     -2076.948730    304.227539  -10260.00390     69.481117
    8113           0     -2076.948730    304.227539  -10620.00390     69.423912
    8114           0     -2076.948730    304.227539  -10980.00390     70.200775
    8115           0     -2076.948730    304.227539  -11340.00390     71.980499
    8116           0     -2076.948730    304.227539  -11700.00390     74.877411
    8117           0     -2076.948730    304.227539  -12060.00390     78.759468
    8118           0     -2076.948730    304.227539  -12420.00390     83.442360
    8119           0     -2076.948730    304.227539  -12780.00390     88.283607
    8120           0     -2076.948730    304.227539  -13140.00390     92.674507
    8121           0     -2076.948730    304.227539  -13500.00390     98.287773
    8122           0     -2076.948730    304.227539  -13860.00390    103.912567
    8123           0     -2076.948730    304.227539  -14220.00293    107.996025
    8124           0     -2091.124023    182.948975   -180.003326     86.342293
    8125           0     -2091.124023    182.948975   -540.003357     82.352470
    8126           0     -2091.124023    182.948975   -900.003418     73.492668
    8127           0     -2091.124023    182.948959  -1260.003418     60.034527
    8128           0     -2091.124023    182.948944  -1620.003418     45.175640
    8129           0     -2091.124023    182.948944  -1980.003418     30.759869
    8130           0     -2091.124023    182.948944  -2340.003418     19.889133
    8131           0     -2091.124023    182.948944  -2700.003418     16.808586
    8132           0     -2091.124023    182.948944  -3060.003418     22.719542
    8133           0     -2091.124023    182.948944  -3420.003418     31.599619
    8134           0     -2091.124023    182.948944  -3780.003662     40.751793
    8135           0     -2091.124023    182.948944  -4140.003418     49.255486
    8136           0     -2091.124023    182.948944  -4500.003906     56.975929
    8137           0     -2091.124023    182.948944  -4860.003906     63.780102
    8138           0     -2091.124023    182.948944  -5220.003906     69.705406
    8139           0     -2091.124023    182.948944  -5580.003418     74.719818
    8140           0     -2091.124023    182.948944  -5940.003418     78.887230
    8141           0     -2091.124023    182.948944  -6300.003906     82.187782
    8142           0     -2091.124023    182.948944  -6660.003906     84.700951
    8143           0     -2091.124023    182.948929  -7020.003906     86.402443
    8144           0     -2091.124023    182.948929  -7380.003418     87.388336
    8145           0     -2091.124023    182.948929  -7740.003906     87.633461
    8146           0     -2091.124023    182.948929  -8100.003906     87.256470
    8147           0     -2091.124023    182.948929  -8460.003906     86.246452
    8148           0     -2091.124023    182.948929  -8820.003906     84.759537
    8149           0     -2091.124023    182.948929  -9180.003906     82.828644
    8150           0     -2091.124023    182.948929  -9540.002930     80.677368
    8151           0     -2091.124023    182.948929  -9900.003906     78.432121
    8152           0     -2091.124023    182.948914  -10260.00390     76.430153
    8153           0     -2091.124023    182.948914  -10620.00390     74.941971
    8154           0     -2091.124023    182.948898  -10980.00390     74.434601
    8155           0     -2091.124023    182.948898  -11340.00390     75.246277
    8156           0     -2091.124023    182.948898  -11700.00390     77.811577
    8157           0     -2091.124023    182.948898  -12060.00390     82.129929
    8158           0     -2091.124023    182.948898  -12420.00390     88.241333
    8159           0     -2091.124023    182.948898  -12780.00390     95.412697
    8160           0     -2091.124023    182.948898  -13140.00390    101.716789
    8161           0     -2091.124023    182.948898  -13500.00390    108.362045
    8162           0     -2091.124023    182.948898  -13860.00390    113.974930
    8163           0     -2091.124023    182.948929  -14220.00293    118.798882
    8164           0     -2098.223633     61.051418   -180.003326     99.844887
    8165           0     -2098.223633     61.051418   -540.003357     93.948044
    8166           0     -2098.223633     61.051418   -900.003418     80.009178
    8167           0     -2098.223633     61.051414  -1260.003418     59.042019
    8168           0     -2098.223633     61.051407  -1620.003418     38.491997
    8169           0     -2098.223633     61.051407  -1980.003540     21.181923
    8170           0     -2098.223633     61.051407  -2340.003662     13.604563
    8171           0     -2098.223633     61.051407  -2700.003662     21.971136
    8172           0     -2098.223633     61.051407  -3060.003418     34.269737
    8173           0     -2098.223633     61.051407  -3420.003906     45.881069
    8174           0     -2098.223633     61.051407  -3780.003906     56.505344
    8175           0     -2098.223633     61.051407  -4140.003906     65.850922
    8176           0     -2098.223633     61.051399  -4500.003906     74.076950
    8177           0     -2098.223633     61.051395  -4860.003906     81.198425
    8178           0     -2098.223633     61.051395  -5220.003906     87.262260
    8179           0     -2098.223633     61.051395  -5580.003906     92.386307
    8180           0     -2098.223633     61.051395  -5940.003418     96.533676
    8181           0     -2098.223633     61.051395  -6300.003906     99.859802
    8182           0     -2098.223633     61.051395  -6660.003906    102.285286
    8183           0     -2098.223633     61.051392  -7020.003906    103.971809
    8184           0     -2098.223633     61.051384  -7380.003906    104.825661
    8185           0     -2098.223633     61.051384  -7740.003906    105.002899
    8186           0     -2098.223633     61.051384  -8100.003418    104.414253
    8187           0     -2098.223633     61.051384  -8460.003906    103.214439
    8188           0     -2098.223633     61.051384  -8820.003906    101.335236
    8189           0     -2098.223633     61.051384  -9180.003906     98.952713
    8190           0     -2098.223633     61.051384  -9540.003906     96.045990
    8191           0     -2098.223633     61.051376  -9900.003906     92.861893
    8192           0     -2098.223633     61.051373  -10260.00390     89.486862
    8193           0     -2098.223633     61.051373  -10620.00390     86.321068
    8194           0     -2098.223633     61.051373  -10980.00390     83.686981
    8195           0     -2098.223633     61.051373  -11340.00390     82.190529
    8196           0     -2098.223633     61.051373  -11700.00390     82.520348
    8197           0     -2098.223633     61.051373  -12060.00390     85.185242
    8198           0     -2098.223633     61.051373  -12420.00390     90.816284
    8199           0     -2098.223633     61.051369  -12780.00390     99.289574
    8200           0     -2098.223633     61.051361  -13140.00390    108.727722
    8201           0     -2098.223633     61.051361  -13500.00390    117.583778
    8202           0     -2098.223633     61.051361  -13860.00390    123.006355
    8203           0     -2098.223633     61.051392  -14220.00293    127.683052
    8204           0     -2098.223633    -61.052704   -180.003326    111.138115
    8205           0     -2098.223633    -61.052704   -540.003357    100.861656
    8206           0     -2098.223633    -61.052704   -900.003418     78.392082
    8207           0     -2098.223633    -61.052704  -1260.003418     49.559578
    8208           0     -2098.223633    -61.052704  -1620.003418     29.890751
    8209           0     -2098.223633    -61.052704  -1980.003540     24.641598
    8210           0     -2098.223633    -61.052704  -2340.003906     33.564079
    8211           0     -2098.223633    -61.052704  -2700.003906     45.958893
    8212           0     -2098.223633    -61.052704  -3060.003418     58.282307
    8213           0     -2098.223633    -61.052704  -3420.003418     69.027885
    8214           0     -2098.223633    -61.052704  -3780.003418     78.869072
    8215           0     -2098.223633    -61.052704  -4140.003906     87.106308
    8216           0     -2098.223633    -61.052704  -4500.003906     94.557701
    8217           0     -2098.223633    -61.052704  -4860.003906    100.650917
    8218           0     -2098.223633    -61.052704  -5220.003906    106.087593
    8219           0     -2098.223633    -61.052704  -5580.003906    110.386047
    8220           0     -2098.223633    -61.052704  -5940.003906    114.113144
    8221           0     -2098.223633    -61.052704  -6300.003906    116.874428
    8222           0     -2098.223633    -61.052704  -6660.003906    119.108147
    8223           0     -2098.223633    -61.052704  -7020.003906    120.506172
    8224           0     -2098.223633    -61.052704  -7380.003906    121.387482
    8225           0     -2098.223633    -61.052704  -7740.003906    121.529312
    8226           0     -2098.223633    -61.052704  -8100.003906    121.142899
    8227           0     -2098.223633    -61.052704  -8460.003906    120.090630
    8228           0     -2098.223633    -61.052704  -8820.003906    118.492088
    8229           0     -2098.223633    -61.052704  -9180.003906    116.298531
    8230           0     -2098.223633    -61.052704  -9540.003906    113.565269
    8231           0     -2098.223633    -61.052704  -9900.003906    110.347198
    8232           0     -2098.223633    -61.052704  -10260.00390    106.692085
    8233           0     -2098.223633    -61.052704  -10620.00390    102.799156
    8234           0     -2098.223633    -61.052711  -10980.00390     98.844238
    8235           0     -2098.223633    -61.052711  -11340.00390     95.265678
    8236           0     -2098.223633    -61.052711  -11700.00390     92.660805
    8237           0     -2098.223633    -61.052711  -12060.00390     91.852707
    8238           0     -2098.223633    -61.052711  -12420.00390     94.070038
    8239           0     -2098.223633    -61.052711  -12780.00390    100.233047
    8240           0     -2098.223633    -61.052711  -13140.00390    111.179077
    8241           0     -2098.223633    -61.052711  -13500.00390    124.175926
    8242           0     -2098.223633    -61.052711  -13860.00390    130.627701
    8243           0     -2098.223633    -61.052708  -14220.00293    133.737625
    8244           0     -2091.123779   -182.950317   -180.003326    118.737640
    8245           0     -2091.123779   -182.950317   -540.003357     98.443520
    8246           0     -2091.123779   -182.950317   -900.003418     64.672401
    8247           0     -2091.123779   -182.950317  -1260.003418     41.643791
    8248           0     -2091.123779   -182.950317  -1620.003418     42.808544
    8249           0     -2091.123779   -182.950317  -1980.003418     52.827690
    8250           0     -2091.123779   -182.950317  -2340.003418     64.395592
    8251           0     -2091.123779   -182.950317  -2700.003418     75.341248
    8252           0     -2091.123779   -182.950317  -3060.003418     84.665283
    8253           0     -2091.123779   -182.950317  -3420.003418     93.033821
    8254           0     -2091.123779   -182.950317  -3780.003662     99.895615
    8255           0     -2091.123779   -182.950333  -4140.003418    106.101746
    8256           0     -2091.123779   -182.950348  -4500.003906    111.071838
    8257           0     -2091.123779   -182.950348  -4860.003906    115.611092
    8258           0     -2091.123779   -182.950348  -5220.003906    119.156631
    8259           0     -2091.123779   -182.950348  -5580.003418    122.394882
    8260           0     -2091.123779   -182.950348  -5940.003418    124.841652
    8261           0     -2091.123779   -182.950348  -6300.003906    127.029610
    8262           0     -2091.123779   -182.950348  -6660.003906    128.586426
    8263           0     -2091.123779   -182.950348  -7020.003906    129.880783
    8264           0     -2091.123779   -182.950348  -7380.003418    130.662445
    8265           0     -2091.123779   -182.950348  -7740.003906    131.141876
    8266           0     -2091.123779   -182.950348  -8100.003906    131.186203
    8267           0     -2091.123779   -182.950348  -8460.003906    130.864471
    8268           0     -2091.123779   -182.950348  -8820.003906    130.146194
    8269           0     -2091.123779   -182.950348  -9180.003906    128.987701
    8270           0     -2091.123779   -182.950348  -9540.002930    127.436371
    8271           0     -2091.123779   -182.950348  -9900.003906    125.384712
    8272           0     -2091.123779   -182.950363  -10260.00390    122.923370
    8273           0     -2091.123779   -182.950363  -10620.00390    119.969994
    8274           0     -2091.123779   -182.950363  -10980.00390    116.622070
    8275           0     -2091.123779   -182.950363  -11340.00390    112.995628
    8276           0     -2091.123779   -182.950363  -11700.00390    109.219055
    8277           0     -2091.123779   -182.950363  -12060.00390    105.965988
    8278           0     -2091.123779   -182.950363  -12420.00390    103.767998
    8279           0     -2091.123779   -182.950363  -12780.00390    104.507370
    8280           0     -2091.123779   -182.950363  -13140.00390    109.939667
    8281           0     -2091.123779   -182.950378  -13500.00390    125.157486
    8282           0     -2091.123779   -182.950378  -13860.00390    136.395065
    8283           0     -2091.123779   -182.950348  -14220.00293    136.545349
    8284           0     -2076.948242   -304.228821   -180.003326    120.470612
    8285           0     -2076.948242   -304.228821   -540.003357     82.137398
    8286           0     -2076.948242   -304.228821   -900.003418     59.504807
    8287           0     -2076.948242   -304.228821  -1260.003418     69.497765
    8288           0     -2076.948242   -304.228821  -1620.003418     79.547028
    8289           0     -2076.948242   -304.228821  -1980.003540     88.860161
    8290           0     -2076.948242   -304.228821  -2340.003662     95.988548
    8291           0     -2076.948242   -304.228821  -2700.003662    101.469177
    8292           0     -2076.948242   -304.228821  -3060.003418    106.166946
    8293           0     -2076.948242   -304.228821  -3420.003906    109.455208
    8294           0     -2076.948242   -304.228821  -3780.003906    112.636810
    8295           0     -2076.948242   -304.228821  -4140.003906    114.705162
    8296           0     -2076.948242   -304.228821  -4500.003906    116.930901
    8297           0     -2076.948242   -304.228821  -4860.003906    118.341675
    8298           0     -2076.948242   -304.228821  -5220.003906    119.983681
    8299           0     -2076.948242   -304.228821  -5580.003906    121.074028
    8300           0     -2076.948242   -304.228821  -5940.003418    122.380356
    8301           0     -2076.948242   -304.228821  -6300.003906    123.346550
    8302           0     -2076.948242   -304.228821  -6660.003906    124.468544
    8303           0     -2076.948242   -304.228821  -7020.003906    125.409332
    8304           0     -2076.948242   -304.228821  -7380.003906    126.418648
    8305           0     -2076.948242   -304.228821  -7740.003906    127.359062
    8306           0     -2076.948242   -304.228821  -8100.003418    128.257858
    8307           0     -2076.948242   -304.228821  -8460.003906    129.160675
    8308           0     -2076.948242   -304.228821  -8820.003906    129.885513
    8309           0     -2076.948242   -304.228821  -9180.003906    130.654099
    8310           0     -2076.948242   -304.228821  -9540.003906    131.074570
    8311           0     -2076.948242   -304.228851  -9900.003906    131.551498
    8312           0     -2076.948242   -304.228882  -10260.00390    131.466461
    8313           0     -2076.948242   -304.228882  -10620.00390    131.435959
    8314           0     -2076.948242   -304.228882  -10980.00390    130.572891
    8315           0     -2076.948242   -304.228882  -11340.00390    129.785507
    8316           0     -2076.948242   -304.228882  -11700.00390    127.817566
    8317           0     -2076.948242   -304.228882  -12060.00390    126.121422
    8318           0     -2076.948242   -304.228882  -12420.00390    122.806290
    8319           0     -2076.948242   -304.228882  -12780.00390    121.019974
    8320           0     -2076.948242   -304.228882  -13140.00390    117.385139
    8321           0     -2076.948242   -304.228882  -13500.00390    123.546425
    8322           0     -2076.948242   -304.228882  -13860.00390    137.147949
    8323           0     -2076.948242   -304.228821  -14220.00293    137.354889
    8324           0     -2055.882568   -423.897186   -180.003326    112.885910
    8325           0     -2055.882568   -423.897186   -540.003357     97.547142
    8326           0     -2055.882568   -423.897186   -900.003418    115.413292
    8327           0     -2055.882568   -423.897186  -1260.003418    120.142387
    8328           0     -2055.882568   -423.897186  -1620.003418    121.809875
    8329           0     -2055.882568   -423.897186  -1980.003540    120.852646
    8330           0     -2055.882568   -423.897186  -2340.003906    118.647690
    8331           0     -2055.882568   -423.897186  -2700.003906    116.331093
    8332           0     -2055.882568   -423.897186  -3060.003418    113.395447
    8333           0     -2055.882568   -423.897186  -3420.003418    110.863045
    8334           0     -2055.882568   -423.897186  -3780.003418    108.166367
    8335           0     -2055.882568   -423.897186  -4140.003906    105.941795
    8336           0     -2055.882568   -423.897217  -4500.003906    103.897232
    8337           0     -2055.882568   -423.897217  -4860.003906    102.296974
    8338           0     -2055.882568   -423.897217  -5220.003906    101.101891
    8339           0     -2055.882568   -423.897217  -5580.003906    100.301308
    8340           0     -2055.882568   -423.897217  -5940.003906    100.025238
    8341           0     -2055.882568   -423.897217  -6300.003906    100.088074
    8342           0     -2055.882568   -423.897217  -6660.003906    100.717987
    8343           0     -2055.882568   -423.897217  -7020.003906    101.630341
    8344           0     -2055.882568   -423.897217  -7380.003906    103.107796
    8345           0     -2055.882568   -423.897217  -7740.003906    104.809837
    8346           0     -2055.882568   -423.897217  -8100.003906    107.056564
    8347           0     -2055.882568   -423.897217  -8460.003906    109.460205
    8348           0     -2055.882568   -423.897217  -8820.003906    112.386116
    8349           0     -2055.882568   -423.897217  -9180.003906    115.373863
    8350           0     -2055.882568   -423.897247  -9540.003906    118.867294
    8351           0     -2055.882568   -423.897247  -9900.003906    122.274658
    8352           0     -2055.882568   -423.897247  -10260.00390    126.179482
    8353           0     -2055.882568   -423.897247  -10620.00390    129.769531
    8354           0     -2055.882568   -423.897247  -10980.00390    133.850357
    8355           0     -2055.882568   -423.897247  -11340.00390    137.289871
    8356           0     -2055.882568   -423.897247  -11700.00390    141.154617
    8357           0     -2055.882568   -423.897247  -12060.00390    143.985870
    8358           0     -2055.882568   -423.897247  -12420.00390    146.787567
    8359           0     -2055.882568   -423.897247  -12780.00390    148.318771
    8360           0     -2055.882568   -423.897247  -13140.00390    147.618011
    8361           0     -2055.882568   -423.897247  -13500.00390    146.163071
    8362           0     -2055.882568   -423.897247  -13860.00390    140.468109
    8363           0     -2055.882568   -423.897217  -14220.00293    136.774124
    8364           0     -2028.065186   -541.566406   -180.003326    138.254776
    8365           0     -2028.065186   -541.566406   -540.003357    228.719864
    8366           0     -2028.065186   -541.566406   -900.003418    184.250549
    8367           0     -2028.065186   -541.566406  -1260.003418    172.943436
    8368           0     -2028.065186   -541.566406  -1620.003418    151.943283
    8369           0     -2028.065186   -541.566406  -1980.003540    137.641190
    8370           0     -2028.065186   -541.566406  -2340.003662    121.730919
    8371           0     -2028.065186   -541.566406  -2700.003662    110.106010
    8372           0     -2028.065186   -541.566406  -3060.003418     97.256943
    8373           0     -2028.065186   -541.566406  -3420.003418     88.277527
    8374           0     -2028.065186   -541.566406  -3780.003662     78.266968
    8375           0     -2028.065186   -541.566406  -4140.003418     71.944595
    8376           0     -2028.065186   -541.566406  -4500.003906     64.923332
    8377           0     -2028.065186   -541.566406  -4860.003906     61.380192
    8378           0     -2028.065186   -541.566406  -5220.003906     57.447090
    8379           0     -2028.065186   -541.566406  -5580.003906     56.539242
    8380           0     -2028.065186   -541.566406  -5940.003418     55.381592
    8381           0     -2028.065186   -541.566406  -6300.003906     56.526447
    8382           0     -2028.065186   -541.566406  -6660.003906     57.449352
    8383           0     -2028.065186   -541.566406  -7020.003906     59.946865
    8384           0     -2028.065186   -541.566406  -7380.003418     62.310432
    8385           0     -2028.065186   -541.566406  -7740.003906     65.736076
    8386           0     -2028.065186   -541.566406  -8100.003906     69.235695
    8387           0     -2028.065186   -541.566406  -8460.003906     73.514618
    8388           0     -2028.065186   -541.566406  -8820.003906     78.145500
    8389           0     -2028.065186   -541.566406  -9180.003906     83.431007
    8390           0     -2028.065186   -541.566467  -9540.002930     89.325256
    8391           0     -2028.065186   -541.566467  -9900.003906     95.862076
    8392           0     -2028.065186   -541.566467  -10260.00390    103.122688
    8393           0     -2028.065186   -541.566467  -10620.00390    111.188179
    8394           0     -2028.065186   -541.566467  -10980.00390    119.756554
    8395           0     -2028.065186   -541.566467  -11340.00390    129.758575
    8396           0     -2028.065186   -541.566467  -11700.00390    139.300720
    8397           0     -2028.065186   -541.566467  -12060.00390    152.105270
    8398           0     -2028.065186   -541.566467  -12420.00390    161.902649
    8399           0     -2028.065186   -541.566467  -12780.00390    178.999542
    8400           0     -2028.065186   -541.566467  -13140.00390    188.924866
    8401           0     -2028.065186   -541.566467  -13500.00390    206.167725
    8402           0     -2028.065186   -541.566467  -13860.00390    234.252853
    8403           0     -2028.065186   -541.566406  -14220.00293    148.099243
    8404           0     -1992.907837   -659.121582   -180.003326    155.092422
    8405           0     -1992.907837   -659.121582   -540.003357    240.471466
    8406           0     -1992.907837   -659.121582   -900.003418    199.317261
    8407           0     -1992.907837   -659.121582  -1260.003418    187.759018
    8408           0     -1992.907837   -659.121582  -1620.003418    170.158508
    8409           0     -1992.907837   -659.121582  -1980.003540    156.671249
    8410           0     -1992.907837   -659.121582  -2340.003906    143.913651
    8411           0     -1992.907837   -659.121582  -2700.003906    133.083939
    8412           0     -1992.907837   -659.121582  -3060.003418    122.881554
    8413           0     -1992.907837   -659.121582  -3420.003906    114.182518
    8414           0     -1992.907837   -659.121582  -3780.003906    106.032959
    8415           0     -1992.907837   -659.121582  -4140.003906     99.175400
    8416           0     -1992.907837   -659.121582  -4500.003906     92.982872
    8417           0     -1992.907837   -659.121582  -4860.003906     87.951340
    8418           0     -1992.907837   -659.121582  -5220.003906     83.732384
    8419           0     -1992.907837   -659.121582  -5580.003906     80.579849
    8420           0     -1992.907837   -659.121582  -5940.003906     78.330452
    8421           0     -1992.907837   -659.121582  -6300.003906     77.061668
    8422           0     -1992.907837   -659.121582  -6660.003906     76.697418
    8423           0     -1992.907837   -659.121582  -7020.003906     77.233139
    8424           0     -1992.907837   -659.121582  -7380.003906     78.596222
    8425           0     -1992.907837   -659.121582  -7740.003906     80.805740
    8426           0     -1992.907837   -659.121582  -8100.003418     83.717155
    8427           0     -1992.907837   -659.121582  -8460.003906     87.478493
    8428           0     -1992.907837   -659.121582  -8820.003906     91.780411
    8429           0     -1992.907837   -659.121582  -9180.003906     97.020828
    8430           0     -1992.907837   -659.121582  -9540.003906    102.572067
    8431           0     -1992.907837   -659.121582  -9900.003906    109.285881
    8432           0     -1992.907837   -659.121582  -10260.00390    115.916100
    8433           0     -1992.907837   -659.121582  -10620.00390    124.207443
    8434           0     -1992.907837   -659.121582  -10980.00390    131.648438
    8435           0     -1992.907837   -659.121582  -11340.00390    141.882599
    8436           0     -1992.907837   -659.121582  -11700.00390    149.676941
    8437           0     -1992.907837   -659.121582  -12060.00390    162.829956
    8438           0     -1992.907837   -659.121582  -12420.00390    170.245621
    8439           0     -1992.907837   -659.121582  -12780.00390    188.083481
    8440           0     -1992.907837   -659.121582  -13140.00390    195.303909
    8441           0     -1992.907837   -659.121582  -13500.00390    214.126144
    8442           0     -1992.907837   -659.121582  -13860.00390    243.156509
    8443           0     -1992.907837   -659.121582  -14220.00293    170.248047
    8444           0     -1950.803955   -775.005493   -180.003326    139.795456
    8445           0     -1950.803955   -775.005493   -540.003357    111.726570
    8446           0     -1950.803955   -775.005493   -900.003418    124.884613
    8447           0     -1950.803955   -775.005493  -1260.003418    127.186630
    8448           0     -1950.803955   -775.005493  -1620.003418    130.592239
    8449           0     -1950.803955   -775.005493  -1980.003540    129.309509
    8450           0     -1950.803955   -775.005493  -2340.003906    128.647003
    8451           0     -1950.803955   -775.005493  -2700.003906    126.376450
    8452           0     -1950.803955   -775.005493  -3060.003418    124.489632
    8453           0     -1950.803955   -775.005493  -3420.003418    122.010452
    8454           0     -1950.803955   -775.005493  -3780.003418    119.904922
    8455           0     -1950.803955   -775.005493  -4140.003906    117.613342
    8456           0     -1950.803955   -775.005493  -4500.003906    115.757706
    8457           0     -1950.803955   -775.005493  -4860.003906    113.927864
    8458           0     -1950.803955   -775.005493  -5220.003906    112.593826
    8459           0     -1950.803955   -775.005493  -5580.003906    111.416023
    8460           0     -1950.803955   -775.005493  -5940.003906    110.767944
    8461           0     -1950.803955   -775.005493  -6300.003906    110.359558
    8462           0     -1950.803955   -775.005493  -6660.003906    110.485886
    8463           0     -1950.803955   -775.005493  -7020.003906    110.902000
    8464           0     -1950.803955   -775.005493  -7380.003906    111.831680
    8465           0     -1950.803955   -775.005493  -7740.003906    113.076019
    8466           0     -1950.803955   -775.005493  -8100.003906    114.787773
    8467           0     -1950.803955   -775.005493  -8460.003906    116.821320
    8468           0     -1950.803955   -775.005493  -8820.003906    119.245941
    8469           0     -1950.803955   -775.005493  -9180.003906    121.992805
    8470           0     -1950.803955   -775.005493  -9540.003906    125.007851
    8471           0     -1950.803955   -775.005493  -9900.003906    128.361603
    8472           0     -1950.803955   -775.005493  -10260.00390    131.777740
    8473           0     -1950.803955   -775.005493  -10620.00390    135.617081
    8474           0     -1950.803955   -775.005493  -10980.00390    139.151505
    8475           0     -1950.803955   -775.005493  -11340.00390    143.378983
    8476           0     -1950.803955   -775.005493  -11700.00390    146.584366
    8477           0     -1950.803955   -775.005493  -12060.00390    151.193649
    8478           0     -1950.803955   -775.005493  -12420.00390    153.219193
    8479           0     -1950.803955   -775.005493  -12780.00390    158.329483
    8480           0     -1950.803955   -775.005493  -13140.00390    157.471390
    8481           0     -1950.803955   -775.005493  -13500.00390    162.784058
    8482           0     -1950.803955   -775.005493  -13860.00390    165.851196
    8483           0     -1950.803955   -775.005493  -14220.00293    186.519135
    8484           0     -1902.441040   -887.123535   -180.003326    139.097305
    8485           0     -1902.441040   -887.123535   -540.003357    104.122787
    8486           0     -1902.441040   -887.123535   -900.003418     76.597656
    8487           0     -1902.441040   -887.123535  -1260.003418     77.663818
    8488           0     -1902.441040   -887.123535  -1620.003418     84.022636
    8489           0     -1902.441040   -887.123535  -1980.003418     91.489044
    8490           0     -1902.441040   -887.123535  -2340.003418     97.366699
    8491           0     -1902.441040   -887.123535  -2700.003418    102.492401
    8492           0     -1902.441040   -887.123535  -3060.003418    106.393127
    8493           0     -1902.441040   -887.123535  -3420.003418    109.591080
    8494           0     -1902.441040   -887.123535  -3780.003662    112.122147
    8495           0     -1902.441040   -887.123535  -4140.003418    114.125481
    8496           0     -1902.441040   -887.123535  -4500.003906    115.785011
    8497           0     -1902.441040   -887.123535  -4860.003906    117.095924
    8498           0     -1902.441040   -887.123535  -5220.003906    118.232742
    8499           0     -1902.441040   -887.123535  -5580.003418    119.175453
    8500           0     -1902.441040   -887.123596  -5940.003418    120.030121
    8501           0     -1902.441040   -887.123596  -6300.003906    120.808815
    8502           0     -1902.441040   -887.123596  -6660.003906    121.538895
    8503           0     -1902.441040   -887.123596  -7020.003906    122.272430
    8504           0     -1902.441040   -887.123596  -7380.003418    122.968468
    8505           0     -1902.441040   -887.123596  -7740.003906    123.710251
    8506           0     -1902.441040   -887.123596  -8100.003906    124.406349
    8507           0     -1902.441040   -887.123596  -8460.003906    125.155899
    8508           0     -1902.441040   -887.123596  -8820.003906    125.836906
    8509           0     -1902.441040   -887.123596  -9180.003906    126.548225
    8510           0     -1902.441040   -887.123596  -9540.002930    127.156219
    8511           0     -1902.441040   -887.123596  -9900.003906    127.750984
    8512           0     -1902.441040   -887.123596  -10260.00390    128.195313
    8513           0     -1902.441040   -887.123596  -10620.00390    128.595322
    8514           0     -1902.441040   -887.123596  -10980.00390    128.772537
    8515           0     -1902.441040   -887.123596  -11340.00390    128.987122
    8516           0     -1902.441040   -887.123596  -11700.00390    128.831528
    8517           0     -1902.441040   -887.123596  -12060.00390    129.230911
    8518           0     -1902.441040   -887.123596  -12420.00390    128.965088
    8519           0     -1902.441040   -887.123596  -12780.00390    131.471741
    8520           0     -1902.441040   -887.123596  -13140.00390    133.570160
    8521           0     -1902.440918   -887.123657  -13500.00390    147.667755
    8522           0     -1902.440918   -887.123657  -13860.00390    176.886108
    8523           0     -1902.440918   -887.123535  -14220.00293    193.472260
    8524           0     -1847.640625   -996.239746   -180.003326    129.370605
    8525           0     -1847.640625   -996.239746   -540.003357    113.710075
    8526           0     -1847.640625   -996.239746   -900.003418     83.333359
    8527           0     -1847.640625   -996.239746  -1260.003418     58.133636
    8528           0     -1847.640625   -996.239746  -1620.003418     52.238663
    8529           0     -1847.640625   -996.239746  -1980.003540     54.922871
    8530           0     -1847.640625   -996.239746  -2340.003662     62.358799
    8531           0     -1847.640625   -996.239746  -2700.003662     70.484314
    8532           0     -1847.640625   -996.239746  -3060.003418     78.127068
    8533           0     -1847.640625   -996.239746  -3420.003906     85.047218
    8534           0     -1847.640625   -996.239746  -3780.003906     90.955727
    8535           0     -1847.640625   -996.239746  -4140.003906     96.182648
    8536           0     -1847.640625   -996.239746  -4500.003906    100.506958
    8537           0     -1847.640625   -996.239746  -4860.003906    104.307213
    8538           0     -1847.640625   -996.239746  -5220.003906    107.380241
    8539           0     -1847.640625   -996.239746  -5580.003906    110.042465
    8540           0     -1847.640625   -996.239746  -5940.003418    112.134865
    8541           0     -1847.640625   -996.239868  -6300.003906    113.881012
    8542           0     -1847.640625   -996.239868  -6660.003906    115.181808
    8543           0     -1847.640625   -996.239868  -7020.003906    116.165970
    8544           0     -1847.640625   -996.239868  -7380.003906    116.794945
    8545           0     -1847.640625   -996.239868  -7740.003906    117.115494
    8546           0     -1847.640625   -996.239868  -8100.003418    117.140373
    8547           0     -1847.640625   -996.239868  -8460.003906    116.857208
    8548           0     -1847.640625   -996.239868  -8820.003906    116.315414
    8549           0     -1847.640625   -996.239868  -9180.003906    115.477455
    8550           0     -1847.640625   -996.239868  -9540.003906    114.412743
    8551           0     -1847.640625   -996.239868  -9900.003906    113.111603
    8552           0     -1847.640625   -996.239868  -10260.00390    111.648605
    8553           0     -1847.640625   -996.239868  -10620.00390    110.137192
    8554           0     -1847.640625   -996.239868  -10980.00390    108.648392
    8555           0     -1847.640625   -996.239868  -11340.00390    107.623016
    8556           0     -1847.640625   -996.239868  -11700.00390    107.129372
    8557           0     -1847.640625   -996.239868  -12060.00390    108.431198
    8558           0     -1847.640625   -996.239868  -12420.00390    111.591301
    8559           0     -1847.640625   -996.239868  -12780.00390    119.842979
    8560           0     -1847.640625   -996.239868  -13140.00390    132.660004
    8561           0     -1847.640625   -996.239868  -13500.00390    158.759933
    8562           0     -1847.640625   -996.239868  -13860.00390    184.300369
    8563           0     -1847.640625   -996.239868  -14220.00293    191.907608
    8564           0     -1786.588501  -1101.985107   -180.003326    115.462135
    8565           0     -1786.588501  -1101.985107   -540.003357    109.482422
    8566           0     -1786.588501  -1101.985107   -900.003418     91.033974
    8567           0     -1786.588501  -1101.985107  -1260.003418     65.697052
    8568           0     -1786.588501  -1101.985107  -1620.003418     46.393173
    8569           0     -1786.588501  -1101.985107  -1980.003540     35.101894
    8570           0     -1786.588501  -1101.985107  -2340.003906     33.328869
    8571           0     -1786.588501  -1101.985107  -2700.003906     38.936882
    8572           0     -1786.588501  -1101.985107  -3060.003418     47.131485
    8573           0     -1786.588501  -1101.985107  -3420.003418     55.484089
    8574           0     -1786.588501  -1101.985107  -3780.003418     63.421677
    8575           0     -1786.588501  -1101.985107  -4140.003906     70.336166
    8576           0     -1786.588501  -1101.985107  -4500.003906     76.564537
    8577           0     -1786.588501  -1101.985107  -4860.003906     81.749939
    8578           0     -1786.588501  -1101.985107  -5220.003906     86.298683
    8579           0     -1786.588501  -1101.985107  -5580.003906     89.935211
    8580           0     -1786.588501  -1101.985107  -5940.003906     93.003464
    8581           0     -1786.588501  -1101.985107  -6300.003906     95.292854
    8582           0     -1786.588501  -1101.985107  -6660.003906     97.063782
    8583           0     -1786.588501  -1101.985107  -7020.003906     98.168976
    8584           0     -1786.588501  -1101.985107  -7380.003906     98.789795
    8585           0     -1786.588501  -1101.985107  -7740.003906     98.841164
    8586           0     -1786.588501  -1101.985107  -8100.003906     98.441544
    8587           0     -1786.588501  -1101.985107  -8460.003906     97.568192
    8588           0     -1786.588501  -1101.985107  -8820.003906     96.306114
    8589           0     -1786.588501  -1101.985107  -9180.003906     94.700829
    8590           0     -1786.588501  -1101.985107  -9540.003906     92.857269
    8591           0     -1786.588501  -1101.985107  -9900.003906     90.909492
    8592           0     -1786.588501  -1101.985107  -10260.00390     89.081520
    8593           0     -1786.588501  -1101.985107  -10620.00390     87.643379
    8594           0     -1786.588501  -1101.985107  -10980.00390     87.096077
    8595           0     -1786.588501  -1101.985107  -11340.00390     87.919907
    8596           0     -1786.588501  -1101.985107  -11700.00390     90.978218
    8597           0     -1786.588501  -1101.985107  -12060.00390     97.034187
    8598           0     -1786.588501  -1101.985107  -12420.00390    106.823891
    8599           0     -1786.588501  -1101.985107  -12780.00390    121.640526
    8600           0     -1786.588501  -1101.985107  -13140.00390    140.738464
    8601           0     -1786.588501  -1101.985107  -13500.00390    164.490753
    8602           0     -1786.588501  -1101.985107  -13860.00390    181.237976
    8603           0     -1786.588501  -1101.985107  -14220.00293    185.534576
    8604           0     -1719.491211  -1204.001587   -180.003326     99.317978
    8605           0     -1719.491211  -1204.001587   -540.003357     97.145378
    8606           0     -1719.491211  -1204.001587   -900.003418     86.789207
    8607           0     -1719.491211  -1204.001587  -1260.003418     70.141281
    8608           0     -1719.491211  -1204.001587  -1620.003418     52.432129
    8609           0     -1719.491211  -1204.001587  -1980.003418     36.371456
    8610           0     -1719.491211  -1204.001587  -2340.003418     23.151695
    8611           0     -1719.491211  -1204.001587  -2700.003418     16.551559
    8612           0     -1719.491211  -1204.001587  -3060.003418     19.206161
    8613           0     -1719.491211  -1204.001587  -3420.003418     26.785423
    8614           0     -1719.491211  -1204.001587  -3780.003662     35.016861
    8615           0     -1719.491211  -1204.001587  -4140.003418     42.677338
    8616           0     -1719.491211  -1204.001587  -4500.003906     49.515930
    8617           0     -1719.491211  -1204.001587  -4860.003906     55.463547
    8618           0     -1719.491211  -1204.001587  -5220.003906     60.505478
    8619           0     -1719.491211  -1204.001587  -5580.003418     64.727837
    8620           0     -1719.491211  -1204.001587  -5940.003418     68.099754
    8621           0     -1719.491211  -1204.001587  -6300.003906     70.745972
    8622           0     -1719.491211  -1204.001587  -6660.003906     72.620689
    8623           0     -1719.491211  -1204.001587  -7020.003906     73.855011
    8624           0     -1719.491211  -1204.001587  -7380.003418     74.409485
    8625           0     -1719.491211  -1204.001587  -7740.003906     74.415794
    8626           0     -1719.491211  -1204.001587  -8100.003906     73.866020
    8627           0     -1719.491211  -1204.001587  -8460.003906     72.906853
    8628           0     -1719.491211  -1204.001587  -8820.003906     71.600868
    8629           0     -1719.491211  -1204.001587  -9180.003906     70.147324
    8630           0     -1719.491211  -1204.001587  -9540.002930     68.751198
    8631           0     -1719.491211  -1204.001587  -9900.003906     67.719299
    8632           0     -1719.491211  -1204.001587  -10260.00390     67.503944
    8633           0     -1719.491211  -1204.001587  -10620.00390     68.511421
    8634           0     -1719.491211  -1204.001587  -10980.00390     71.458641
    8635           0     -1719.491211  -1204.001587  -11340.00390     76.589020
    8636           0     -1719.491211  -1204.001587  -11700.00390     84.644943
    8637           0     -1719.491089  -1204.001587  -12060.00390     95.438568
    8638           0     -1719.491089  -1204.001587  -12420.00390    109.258759
    8639           0     -1719.491089  -1204.001587  -12780.00390    126.110794
    8640           0     -1719.491089  -1204.001587  -13140.00390    143.593140
    8641           0     -1719.491089  -1204.001587  -13500.00390    160.704971
    8642           0     -1719.491089  -1204.001587  -13860.00390    172.613358
    8643           0     -1719.491089  -1204.001587  -14220.00293    175.522690
    8644           0     -1646.575562  -1301.944092   -180.003326     82.075928
    8645           0     -1646.575562  -1301.944092   -540.003357     81.264992
    8646           0     -1646.575562  -1301.944092   -900.003418     75.256004
    8647           0     -1646.575562  -1301.944092  -1260.003418     65.733597
    8648           0     -1646.575562  -1301.944092  -1620.003418     53.949104
    8649           0     -1646.575562  -1301.944092  -1980.003540     41.338161
    8650           0     -1646.575562  -1301.944092  -2340.003662     29.132038
    8651           0     -1646.575562  -1301.944092  -2700.003662     17.971918
    8652           0     -1646.575562  -1301.944214  -3060.003418      7.886685
    8653           0     -1646.575562  -1301.944214  -3420.003906      4.271820
    8654           0     -1646.575562  -1301.944214  -3780.003906     11.550120
    8655           0     -1646.575562  -1301.944214  -4140.003906     18.889101
    8656           0     -1646.575562  -1301.944214  -4500.003906     25.470707
    8657           0     -1646.575562  -1301.944214  -4860.003906     31.158476
    8658           0     -1646.575562  -1301.944214  -5220.003906     36.025066
    8659           0     -1646.575562  -1301.944214  -5580.003906     40.047432
    8660           0     -1646.575562  -1301.944214  -5940.003418     43.310722
    8661           0     -1646.575562  -1301.944214  -6300.003906     45.805477
    8662           0     -1646.575562  -1301.944214  -6660.003906     47.629467
    8663           0     -1646.575562  -1301.944214  -7020.003906     48.784920
    8664           0     -1646.575562  -1301.944214  -7380.003906     49.395100
    8665           0     -1646.575562  -1301.944214  -7740.003906     49.495720
    8666           0     -1646.575562  -1301.944214  -8100.003418     49.261211
    8667           0     -1646.575562  -1301.944214  -8460.003906     48.805969
    8668           0     -1646.575562  -1301.944214  -8820.003906     48.402187
    8669           0     -1646.575562  -1301.944214  -9180.003906     48.301765
    8670           0     -1646.575562  -1301.944214  -9540.003906     48.910400
    8671           0     -1646.575562  -1301.944214  -9900.003906     50.592987
    8672           0     -1646.575562  -1301.944214  -10260.00390     53.780533
    8673           0     -1646.575562  -1301.944214  -10620.00390     58.703789
    8674           0     -1646.575562  -1301.944214  -10980.00390     65.610947
    8675           0     -1646.575562  -1301.944214  -11340.00390     74.402603
    8676           0     -1646.575562  -1301.944214  -11700.00390     85.179337
    8677           0     -1646.575562  -1301.944214  -12060.00390     97.571030
    8678           0     -1646.575562  -1301.944214  -12420.00390    111.405121
    8679           0     -1646.575562  -1301.944214  -12780.00390    126.206482
    8680           0     -1646.575562  -1301.944214  -13140.00390    139.224213
    8681           0     -1646.575562  -1301.944214  -13500.00390    151.287659
    8682           0     -1646.575562  -1301.944214  -13860.00390    160.995605
    8683           0     -1646.575562  -1301.944092  -14220.00293    163.085388
    8684           0     -1568.088623  -1395.481323   -180.003326     64.644363
    8685           0     -1568.088623  -1395.481323   -540.003357     64.472443
    8686           0     -1568.088623  -1395.481323   -900.003418     60.723030
    8687           0     -1568.088623  -1395.481323  -1260.003418     55.873177
    8688           0     -1568.088623  -1395.481323  -1620.003418     49.246861
    8689           0     -1568.088623  -1395.481323  -1980.003540     41.475281
    8690           0     -1568.088623  -1395.481323  -2340.003906     33.686253
    8691           0     -1568.088623  -1395.481323  -2700.003906     26.693178
    8692           0     -1568.088623  -1395.481323  -3060.003418     20.666288
    8693           0     -1568.088623  -1395.481323  -3420.003418     16.299295
    8694           0     -1568.088623  -1395.481323  -3780.003418     14.235517
    8695           0     -1568.088623  -1395.481323  -4140.003906     14.673416
    8696           0     -1568.088623  -1395.481323  -4500.003906     16.791109
    8697           0     -1568.088623  -1395.481323  -4860.003906     19.548590
    8698           0     -1568.088623  -1395.481323  -5220.003906     22.336205
    8699           0     -1568.088623  -1395.481323  -5580.003906     24.861816
    8700           0     -1568.088623  -1395.481323  -5940.003906     26.992445
    8701           0     -1568.088623  -1395.481323  -6300.003906     28.700132
    8702           0     -1568.088623  -1395.481323  -6660.003906     29.981112
    8703           0     -1568.088623  -1395.481323  -7020.003906     30.907982
    8704           0     -1568.088623  -1395.481323  -7380.003906     31.554117
    8705           0     -1568.088623  -1395.481323  -7740.003906     32.082161
    8706           0     -1568.088623  -1395.481323  -8100.003906     32.661751
    8707           0     -1568.088623  -1395.481323  -8460.003906     33.554932
    8708           0     -1568.088623  -1395.481323  -8820.003906     35.022614
    8709           0     -1568.088623  -1395.481323  -9180.003906     37.349167
    8710           0     -1568.088623  -1395.481323  -9540.003906     40.765495
    8711           0     -1568.088623  -1395.481323  -9900.003906     45.401077
    8712           0     -1568.088623  -1395.481323  -10260.00390     51.352341
    8713           0     -1568.088623  -1395.481323  -10620.00390     58.543159
    8714           0     -1568.088623  -1395.481323  -10980.00390     67.011124
    8715           0     -1568.088623  -1395.481323  -11340.00390     76.518860
    8716           0     -1568.088623  -1395.481323  -11700.00390     87.094543
    8717           0     -1568.088623  -1395.481323  -12060.00390     98.299652
    8718           0     -1568.088623  -1395.481323  -12420.00390    109.909889
    8719           0     -1568.088623  -1395.481323  -12780.00390    121.095474
    8720           0     -1568.088623  -1395.481323  -13140.00390    130.357697
    8721           0     -1568.088623  -1395.481323  -13500.00390    139.346497
    8722           0     -1568.088623  -1395.481323  -13860.00390    147.974884
    8723           0     -1568.088623  -1395.481323  -14220.00293    149.220169
    8724           0     -1484.295532  -1484.296631   -180.003326     48.046745
    8725           0     -1484.295532  -1484.296631   -540.003357     48.405109
    8726           0     -1484.295532  -1484.296631   -900.003418     46.044773
    8727           0     -1484.295532  -1484.296631  -1260.003418     44.056126
    8728           0     -1484.295532  -1484.296631  -1620.003418     41.079693
    8729           0     -1484.295532  -1484.296631  -1980.003418     37.382256
    8730           0     -1484.295532  -1484.296631  -2340.003418     33.647339
    8731           0     -1484.295532  -1484.296631  -2700.003418     30.736670
    8732           0     -1484.295532  -1484.296631  -3060.003418     28.643118
    8733           0     -1484.295532  -1484.296631  -3420.003418     27.389099
    8734           0     -1484.295532  -1484.296631  -3780.003662     26.816435
    8735           0     -1484.295532  -1484.296631  -4140.003418     26.768892
    8736           0     -1484.295532  -1484.296631  -4500.003906     27.080879
    8737           0     -1484.295532  -1484.296631  -4860.003906     27.600336
    8738           0     -1484.295532  -1484.296631  -5220.003906     28.204527
    8739           0     -1484.295532  -1484.296631  -5580.003418     28.808491
    8740           0     -1484.295532  -1484.296631  -5940.003418     29.358398
    8741           0     -1484.295532  -1484.296631  -6300.003906     29.840939
    8742           0     -1484.295532  -1484.296631  -6660.003906     30.276413
    8743           0     -1484.295532  -1484.296631  -7020.003906     30.721834
    8744           0     -1484.295532  -1484.296631  -7380.003418     31.274532
    8745           0     -1484.295532  -1484.296631  -7740.003906     32.060699
    8746           0     -1484.295532  -1484.296631  -8100.003906     33.239273
    8747           0     -1484.295532  -1484.296631  -8460.003906     34.971027
    8748           0     -1484.295532  -1484.296631  -8820.003906     37.409348
    8749           0     -1484.295532  -1484.296631  -9180.003906     40.669037
    8750           0     -1484.295532  -1484.296631  -9540.002930     44.819771
    8751           0     -1484.295532  -1484.296631  -9900.003906     49.882694
    8752           0     -1484.295532  -1484.296631  -10260.00390     55.845116
    8753           0     -1484.295532  -1484.296631  -10620.00390     62.643997
    8754           0     -1484.295532  -1484.296631  -10980.00390     70.232582
    8755           0     -1484.295532  -1484.296631  -11340.00390     78.437767
    8756           0     -1484.295532  -1484.296631  -11700.00390     87.185379
    8757           0     -1484.295532  -1484.296631  -12060.00390     96.085365
    8758           0     -1484.295532  -1484.296631  -12420.00390    104.824577
    8759           0     -1484.295532  -1484.296631  -12780.00390    112.793503
    8760           0     -1484.295532  -1484.296631  -13140.00390    119.639557
    8761           0     -1484.295532  -1484.296631  -13500.00390    126.852478
    8762           0     -1484.295532  -1484.296631  -13860.00390    134.567078
    8763           0     -1484.295532  -1484.296631  -14220.00293    135.025284
    8764           0     -1395.480103  -1568.089600   -180.003326     33.525970
    8765           0     -1395.480103  -1568.089600   -540.003357     34.416805
    8766           0     -1395.480103  -1568.089600   -900.003418     33.192379
    8767           0     -1395.480103  -1568.089600  -1260.003418     32.944328
    8768           0     -1395.480103  -1568.089600  -1620.003418     32.310246
    8769           0     -1395.480103  -1568.089600  -1980.003540     31.545305
    8770           0     -1395.480103  -1568.089600  -2340.003662     30.772501
    8771           0     -1395.480103  -1568.089600  -2700.003662     30.811378
    8772           0     -1395.480103  -1568.089600  -3060.003418     31.563360
    8773           0     -1395.480103  -1568.089600  -3420.003906     32.819992
    8774           0     -1395.480103  -1568.089600  -3780.003906     34.263161
    8775           0     -1395.480103  -1568.089600  -4140.003906     35.690792
    8776           0     -1395.480103  -1568.089600  -4500.003906     36.984371
    8777           0     -1395.480103  -1568.089600  -4860.003906     38.089436
    8778           0     -1395.480103  -1568.089600  -5220.003906     38.990616
    8779           0     -1395.480103  -1568.089600  -5580.003906     39.701004
    8780           0     -1395.480103  -1568.089600  -5940.003418     40.247402
    8781           0     -1395.480103  -1568.089600  -6300.003906     40.676155
    8782           0     -1395.480103  -1568.089600  -6660.003906     41.043415
    8783           0     -1395.480103  -1568.089600  -7020.003906     41.424015
    8784           0     -1395.480103  -1568.089600  -7380.003906     41.903648
    8785           0     -1395.480103  -1568.089600  -7740.003906     42.584110
    8786           0     -1395.480103  -1568.089600  -8100.003418     43.572674
    8787           0     -1395.480103  -1568.089600  -8460.003906     44.981419
    8788           0     -1395.480103  -1568.089600  -8820.003906     46.910606
    8789           0     -1395.480103  -1568.089600  -9180.003906     49.446857
    8790           0     -1395.480103  -1568.089600  -9540.003906     52.645885
    8791           0     -1395.480103  -1568.089600  -9900.003906     56.536621
    8792           0     -1395.480103  -1568.089600  -10260.00390     61.115475
    8793           0     -1395.480103  -1568.089600  -10620.00390     66.337006
    8794           0     -1395.480103  -1568.089600  -10980.00390     72.149864
    8795           0     -1395.480103  -1568.089600  -11340.00390     78.390198
    8796           0     -1395.480103  -1568.089600  -11700.00390     84.964775
    8797           0     -1395.480103  -1568.089600  -12060.00390     91.466919
    8798           0     -1395.480103  -1568.089600  -12420.00390     97.730728
    8799           0     -1395.480103  -1568.089600  -12780.00390    103.438568
    8800           0     -1395.480103  -1568.089600  -13140.00390    108.923363
    8801           0     -1395.480103  -1568.089600  -13500.00390    114.888687
    8802           0     -1395.480103  -1568.089600  -13860.00390    121.675583
    8803           0     -1395.480103  -1568.089600  -14220.00293    121.396828
    8804           0     -1301.942871  -1646.576660   -180.003326     22.883112
    8805           0     -1301.942871  -1646.576660   -540.003357     24.083862
    8806           0     -1301.942871  -1646.576660   -900.003418     23.865126
    8807           0     -1301.942871  -1646.576660  -1260.003418     24.579203
    8808           0     -1301.942871  -1646.576660  -1620.003418     25.227077
    8809           0     -1301.942871  -1646.576660  -1980.003540     26.174250
    8810           0     -1301.942871  -1646.576660  -2340.003906     27.184683
    8811           0     -1301.942871  -1646.576660  -2700.003906     28.883417
    8812           0     -1301.942871  -1646.576660  -3060.003418     31.231668
    8813           0     -1301.942871  -1646.576660  -3420.003418     34.037815
    8814           0     -1301.942871  -1646.576660  -3780.003418     36.952179
    8815           0     -1301.942871  -1646.576660  -4140.003906     39.734848
    8816           0     -1301.942871  -1646.576660  -4500.003906     42.240704
    8817           0     -1301.942871  -1646.576660  -4860.003906     44.403347
    8818           0     -1301.942871  -1646.576660  -5220.003906     46.209587
    8819           0     -1301.942871  -1646.576660  -5580.003906     47.676838
    8820           0     -1301.942871  -1646.576660  -5940.003906     48.842987
    8821           0     -1301.942871  -1646.576660  -6300.003906     49.758781
    8822           0     -1301.942871  -1646.576660  -6660.003906     50.484364
    8823           0     -1301.942871  -1646.576660  -7020.003906     51.088104
    8824           0     -1301.942871  -1646.576660  -7380.003906     51.644650
    8825           0     -1301.942871  -1646.576660  -7740.003906     52.235973
    8826           0     -1301.942871  -1646.576660  -8100.003906     52.947403
    8827           0     -1301.942871  -1646.576660  -8460.003906     53.869675
    8828           0     -1301.942871  -1646.576660  -8820.003906     55.089153
    8829           0     -1301.942871  -1646.576660  -9180.003906     56.691742
    8830           0     -1301.942871  -1646.576660  -9540.003906     58.744637
    8831           0     -1301.942871  -1646.576660  -9900.003906     61.304024
    8832           0     -1301.942871  -1646.576660  -10260.00390     64.392677
    8833           0     -1301.942871  -1646.576660  -10620.00390     68.000984
    8834           0     -1301.942871  -1646.576660  -10980.00390     72.087769
    8835           0     -1301.942871  -1646.576660  -11340.00390     76.515686
    8836           0     -1301.942871  -1646.576660  -11700.00390     81.181770
    8837           0     -1301.942871  -1646.576660  -12060.00390     85.744453
    8838           0     -1301.942871  -1646.576660  -12420.00390     90.256248
    8839           0     -1301.942871  -1646.576660  -12780.00390     94.589630
    8840           0     -1301.942871  -1646.576660  -13140.00390     99.234367
    8841           0     -1301.942871  -1646.576660  -13500.00390    104.149719
    8842           0     -1301.942871  -1646.576660  -13860.00390    110.015411
    8843           0     -1301.942871  -1646.576660  -14220.00293    109.094986
    8844           0     -1204.000244  -1719.492188   -180.003326     18.491230
    8845           0     -1204.000244  -1719.492188   -540.003357     19.268951
    8846           0     -1204.000244  -1719.492188   -900.003418     19.528166
    8847           0     -1204.000244  -1719.492188  -1260.003418     20.276663
    8848           0     -1204.000244  -1719.492188  -1620.003418     21.228106
    8849           0     -1204.000244  -1719.492188  -1980.003418     22.618753
    8850           0     -1204.000244  -1719.492188  -2340.003418     24.252867
    8851           0     -1204.000244  -1719.492188  -2700.003418     26.470560
    8852           0     -1204.000244  -1719.492188  -3060.003418     29.296349
    8853           0     -1204.000244  -1719.492188  -3420.003418     32.649864
    8854           0     -1204.000244  -1719.492188  -3780.003662     36.234245
    8855           0     -1204.000244  -1719.492188  -4140.003418     39.793774
    8856           0     -1204.000244  -1719.492188  -4500.003906     43.135654
    8857           0     -1204.000244  -1719.492188  -4860.003906     46.145290
    8858           0     -1204.000244  -1719.492188  -5220.003906     48.768276
    8859           0     -1204.000244  -1719.492188  -5580.003418     50.990475
    8860           0     -1204.000244  -1719.492188  -5940.003418     52.826645
    8861           0     -1204.000244  -1719.492188  -6300.003906     54.309467
    8862           0     -1204.000244  -1719.492188  -6660.003906     55.484684
    8863           0     -1204.000244  -1719.492188  -7020.003906     56.407284
    8864           0     -1204.000244  -1719.492188  -7380.003418     57.139553
    8865           0     -1204.000244  -1719.492188  -7740.003906     57.750980
    8866           0     -1204.000244  -1719.492188  -8100.003906     58.316521
    8867           0     -1204.000244  -1719.492188  -8460.003906     58.918472
    8868           0     -1204.000244  -1719.492188  -8820.003906     59.641148
    8869           0     -1204.000244  -1719.492188  -9180.003906     60.573498
    8870           0     -1204.000244  -1719.492188  -9540.002930     61.795483
    8871           0     -1204.000244  -1719.492188  -9900.003906     63.380009
    8872           0     -1204.000244  -1719.492188  -10260.00390     65.371193
    8873           0     -1204.000244  -1719.492188  -10620.00390     67.778122
    8874           0     -1204.000244  -1719.492188  -10980.00390     70.572296
    8875           0     -1204.000244  -1719.492188  -11340.00390     73.635544
    8876           0     -1204.000244  -1719.492188  -11700.00390     76.896919
    8877           0     -1204.000244  -1719.492188  -12060.00390     80.136169
    8878           0     -1204.000244  -1719.492188  -12420.00390     83.582024
    8879           0     -1204.000244  -1719.492188  -12780.00390     87.095192
    8880           0     -1204.000244  -1719.492188  -13140.00390     91.092644
    8881           0     -1204.000244  -1719.492188  -13500.00390     95.083565
    8882           0     -1204.000244  -1719.492188  -13860.00390    100.117348
    8883           0     -1204.000244  -1719.492188  -14220.00293     98.668671
    8884           0     -1101.983643  -1786.589478   -180.003326     19.943972
    8885           0     -1101.983643  -1786.589478   -540.003357     19.727423
    8886           0     -1101.983643  -1786.589478   -900.003418     19.643152
    8887           0     -1101.983643  -1786.589478  -1260.003418     19.589005
    8888           0     -1101.983643  -1786.589478  -1620.003418     20.078562
    8889           0     -1101.983643  -1786.589478  -1980.003540     20.965740
    8890           0     -1101.983643  -1786.589478  -2340.003662     22.320791
    8891           0     -1101.983643  -1786.589478  -2700.003662     24.254187
    8892           0     -1101.983643  -1786.589478  -3060.003418     26.799276
    8893           0     -1101.983643  -1786.589478  -3420.003906     29.942896
    8894           0     -1101.983643  -1786.589478  -3780.003906     33.479599
    8895           0     -1101.983643  -1786.589478  -4140.003906     37.179131
    8896           0     -1101.983643  -1786.589478  -4500.003906     40.824863
    8897           0     -1101.983643  -1786.589478  -4860.003906     44.258842
    8898           0     -1101.983643  -1786.589478  -5220.003906     47.378265
    8899           0     -1101.983643  -1786.589478  -5580.003906     50.126110
    8900           0     -1101.983643  -1786.589478  -5940.003418     52.480595
    8901           0     -1101.983643  -1786.589478  -6300.003906     54.445324
    8902           0     -1101.983643  -1786.589478  -6660.003906     56.042736
    8903           0     -1101.983643  -1786.589478  -7020.003906     57.309917
    8904           0     -1101.983643  -1786.589478  -7380.003906     58.295620
    8905           0     -1101.983643  -1786.589478  -7740.003906     59.059738
    8906           0     -1101.983643  -1786.589478  -8100.003418     59.671341
    8907           0     -1101.983643  -1786.589478  -8460.003906     60.209530
    8908           0     -1101.983643  -1786.589478  -8820.003906     60.758774
    8909           0     -1101.983643  -1786.589478  -9180.003906     61.408852
    8910           0     -1101.983643  -1786.589478  -9540.003906     62.242764
    8911           0     -1101.983643  -1786.589478  -9900.003906     63.333916
    8912           0     -1101.983643  -1786.589478  -10260.00390     64.726936
    8913           0     -1101.983643  -1786.589478  -10620.00390     66.430435
    8914           0     -1101.983643  -1786.589478  -10980.00390     68.420387
    8915           0     -1101.983643  -1786.589478  -11340.00390     70.609367
    8916           0     -1101.983643  -1786.589478  -11700.00390     72.991753
    8917           0     -1101.983643  -1786.589478  -12060.00390     75.470612
    8918           0     -1101.983643  -1786.589478  -12420.00390     78.319054
    8919           0     -1101.983643  -1786.589478  -12780.00390     81.292656
    8920           0     -1101.983643  -1786.589478  -13140.00390     84.722908
    8921           0     -1101.983643  -1786.589478  -13500.00390     87.957886
    8922           0     -1101.983643  -1786.589478  -13860.00390     92.298630
    8923           0     -1101.983643  -1786.589478  -14220.00293     90.445122
    8924           0      -996.238403  -1847.641357   -180.003326     23.133123
    8925           0      -996.238403  -1847.641357   -540.003357     22.130226
    8926           0      -996.238403  -1847.641357   -900.003418     21.403040
    8927           0      -996.238403  -1847.641357  -1260.003418     20.421701
    8928           0      -996.238403  -1847.641357  -1620.003418     20.199966
    8929           0      -996.238403  -1847.641357  -1980.003540     20.284092
    8930           0      -996.238403  -1847.641357  -2340.003906     20.965611
    8931           0      -996.238403  -1847.641357  -2700.003906     22.247021
    8932           0      -996.238403  -1847.641357  -3060.003418     24.167217
    8933           0      -996.238403  -1847.641357  -3420.003418     26.719543
    8934           0      -996.238403  -1847.641357  -3780.003418     29.771544
    8935           0      -996.238403  -1847.641357  -4140.003906     33.144909
    8936           0      -996.238403  -1847.641357  -4500.003906     36.638367
    8937           0      -996.238403  -1847.641357  -4860.003906     40.081432
    8938           0      -996.238403  -1847.641357  -5220.003906     43.342152
    8939           0      -996.238403  -1847.641357  -5580.003906     46.330196
    8940           0      -996.238403  -1847.641357  -5940.003906     48.990353
    8941           0      -996.238403  -1847.641357  -6300.003906     51.296860
    8942           0      -996.238403  -1847.641357  -6660.003906     53.247288
    8943           0      -996.238403  -1847.641357  -7020.003906     54.859276
    8944           0      -996.238403  -1847.641357  -7380.003906     56.167118
    8945           0      -996.238403  -1847.641357  -7740.003906     57.220398
    8946           0      -996.238403  -1847.641357  -8100.003906     58.081272
    8947           0      -996.238403  -1847.641357  -8460.003906     58.822670
    8948           0      -996.238403  -1847.641357  -8820.003906     59.522980
    8949           0      -996.238403  -1847.641357  -9180.003906     60.262093
    8950           0      -996.238403  -1847.641357  -9540.003906     61.110622
    8951           0      -996.238403  -1847.641357  -9900.003906     62.124691
    8952           0      -996.238403  -1847.641357  -10260.00390     63.333664
    8953           0      -996.238403  -1847.641357  -10620.00390     64.738617
    8954           0      -996.238403  -1847.641357  -10980.00390     66.326973
    8955           0      -996.238403  -1847.641357  -11340.00390     68.061874
    8956           0      -996.238403  -1847.641357  -11700.00390     70.003845
    8957           0      -996.238403  -1847.641357  -12060.00390     72.123169
    8958           0      -996.238403  -1847.641357  -12420.00390     74.631783
    8959           0      -996.238403  -1847.641357  -12780.00390     77.218231
    8960           0      -996.238403  -1847.641357  -13140.00390     80.172821
    8961           0      -996.238403  -1847.641357  -13500.00390     82.857399
    8962           0      -996.238403  -1847.641357  -13860.00390     86.670403
    8963           0      -996.238403  -1847.641357  -14220.00293     84.525803
    8964           0      -887.122070  -1902.441650   -180.003326     25.466000
    8965           0      -887.122070  -1902.441650   -540.003357     23.994268
    8966           0      -887.122070  -1902.441650   -900.003418     22.719080
    8967           0      -887.122070  -1902.441650  -1260.003418     21.059221
    8968           0      -887.122070  -1902.441650  -1620.003418     20.212767
    8969           0      -887.122070  -1902.441650  -1980.003418     19.597332
    8970           0      -887.122070  -1902.441650  -2340.003418     19.608721
    8971           0      -887.122070  -1902.441650  -2700.003418     20.222517
    8972           0      -887.122070  -1902.441650  -3060.003418     21.498148
    8973           0      -887.122009  -1902.441650  -3420.003418     23.417746
    8974           0      -887.122009  -1902.441650  -3780.003662     25.880163
    8975           0      -887.122009  -1902.441650  -4140.003418     28.747158
    8976           0      -887.122009  -1902.441650  -4500.003906     31.852631
    8977           0      -887.122009  -1902.441650  -4860.003906     35.043594
    8978           0      -887.122009  -1902.441650  -5220.003906     38.188831
    8979           0      -887.122009  -1902.441650  -5580.003418     41.187462
    8980           0      -887.122009  -1902.441650  -5940.003418     43.966953
    8981           0      -887.122009  -1902.441650  -6300.003906     46.482216
    8982           0      -887.122009  -1902.441650  -6660.003906     48.711845
    8983           0      -887.122009  -1902.441650  -7020.003906     50.656464
    8984           0      -887.122009  -1902.441650  -7380.003418     52.335510
    8985           0      -887.122009  -1902.441650  -7740.003906     53.784969
    8986           0      -887.122009  -1902.441650  -8100.003906     55.053539
    8987           0      -887.122009  -1902.441650  -8460.003906     56.198467
    8988           0      -887.122009  -1902.441650  -8820.003906     57.279549
    8989           0      -887.122009  -1902.441650  -9180.003906     58.353416
    8990           0      -887.122009  -1902.441650  -9540.002930     59.465809
    8991           0      -887.122009  -1902.441650  -9900.003906     60.648571
    8992           0      -887.122009  -1902.441650  -10260.00390     61.917019
    8993           0      -887.122009  -1902.441650  -10620.00390     63.275932
    8994           0      -887.121948  -1902.441650  -10980.00390     64.739807
    8995           0      -887.121948  -1902.441650  -11340.00390     66.326042
    8996           0      -887.121948  -1902.441650  -11700.00390     68.124519
    8997           0      -887.121948  -1902.441650  -12060.00390     70.114075
    8998           0      -887.121948  -1902.441650  -12420.00390     72.416389
    8999           0      -887.121948  -1902.441650  -12780.00390     74.740486
    9000           0      -887.121948  -1902.441650  -13140.00390     77.338783
    9001           0      -887.121948  -1902.441650  -13500.00390     79.687607
    9002           0      -887.121948  -1902.441650  -13860.00390     83.129822
    9003           0      -887.121948  -1902.441650  -14220.00293     80.805962
    9004           0      -775.004028  -1950.804565   -180.003326     26.242144
    9005           0      -775.004028  -1950.804565   -540.003357     24.523733
    9006           0      -775.004028  -1950.804565   -900.003418     22.871233
    9007           0      -775.004028  -1950.804565  -1260.003418     20.816877
    9008           0      -775.004028  -1950.804565  -1620.003418     19.524912
    9009           0      -775.004028  -1950.804565  -1980.003540     18.429768
    9010           0      -775.004028  -1950.804565  -2340.003662     17.941628
    9011           0      -775.004028  -1950.804565  -2700.003662     18.058920
    9012           0      -775.004028  -1950.804565  -3060.003418     18.863491
    9013           0      -775.004028  -1950.804565  -3420.003906     20.334558
    9014           0      -775.003967  -1950.804565  -3780.003906     22.370203
    9015           0      -775.003967  -1950.804565  -4140.003906     24.836901
    9016           0      -775.003967  -1950.804565  -4500.003906     27.588825
    9017           0      -775.003967  -1950.804565  -4860.003906     30.496416
    9018           0      -775.003967  -1950.804565  -5220.003906     33.448032
    9019           0      -775.003967  -1950.804565  -5580.003906     36.354557
    9020           0      -775.003967  -1950.804565  -5940.003418     39.147110
    9021           0      -775.003967  -1950.804565  -6300.003906     41.778065
    9022           0      -775.003967  -1950.804565  -6660.003906     44.218925
    9023           0      -775.003967  -1950.804565  -7020.003906     46.459644
    9024           0      -775.003967  -1950.804565  -7380.003906     48.505863
    9025           0      -775.003967  -1950.804565  -7740.003906     50.375965
    9026           0      -775.003967  -1950.804565  -8100.003418     52.097359
    9027           0      -775.003967  -1950.804565  -8460.003906     53.701675
    9028           0      -775.003967  -1950.804565  -8820.003906     55.220860
    9029           0      -775.003967  -1950.804565  -9180.003906     56.682735
    9030           0      -775.003967  -1950.804565  -9540.003906     58.109371
    9031           0      -775.003967  -1950.804565  -9900.003906     59.517864
    9032           0      -775.003967  -1950.804565  -10260.00390     60.925179
    9033           0      -775.003967  -1950.804565  -10620.00390     62.355919
    9034           0      -775.003967  -1950.804565  -10980.00390     63.855392
    9035           0      -775.003967  -1950.804565  -11340.00390     65.473793
    9036           0      -775.003967  -1950.804565  -11700.00390     67.285248
    9037           0      -775.003967  -1950.804565  -12060.00390     69.256287
    9038           0      -775.003967  -1950.804565  -12420.00390     71.436386
    9039           0      -775.003967  -1950.804565  -12780.00390     73.620407
    9040           0      -775.003967  -1950.804565  -13140.00390     75.987785
    9041           0      -775.003967  -1950.804565  -13500.00390     78.192696
    9042           0      -775.003967  -1950.804565  -13860.00390     81.404869
    9043           0      -775.003967  -1950.804565  -14220.00293     78.997391
    9044           0      -660.263672  -1992.566650   -180.003326     25.550665
    9045           0      -660.263672  -1992.566650   -540.003357     23.731668
    9046           0      -660.263672  -1992.566650   -900.003418     21.856039
    9047           0      -660.263672  -1992.566650  -1260.003418     19.640051
    9048           0      -660.263672  -1992.566650  -1620.003418     18.085701
    9049           0      -660.263672  -1992.566650  -1980.003540     16.745234
    9050           0      -660.263672  -1992.566650  -2340.003906     15.989057
    9051           0      -660.263672  -1992.566650  -2700.003906     15.869517
    9052           0      -660.263672  -1992.566650  -3060.003418     16.483908
    9053           0      -660.263672  -1992.566650  -3420.003418     17.812235
    9054           0      -660.263672  -1992.566650  -3780.003418     19.734617
    9055           0      -660.263672  -1992.566650  -4140.003906     22.091808
    9056           0      -660.263672  -1992.566650  -4500.003906     24.729715
    9057           0      -660.263672  -1992.566650  -4860.003906     27.524380
    9058           0      -660.263672  -1992.566650  -5220.003906     30.381123
    9059           0      -660.263672  -1992.566650  -5580.003906     33.230080
    9060           0      -660.263672  -1992.566650  -5940.003906     36.020035
    9061           0      -660.263672  -1992.566650  -6300.003906     38.715763
    9062           0      -660.263672  -1992.566650  -6660.003906     41.294537
    9063           0      -660.263672  -1992.566650  -7020.003906     43.744503
    9064           0      -660.263672  -1992.566650  -7380.003906     46.061794
    9065           0      -660.263672  -1992.566650  -7740.003906     48.248295
    9066           0      -660.263672  -1992.566650  -8100.003906     50.309151
    9067           0      -660.263672  -1992.566650  -8460.003906     52.250919
    9068           0      -660.263672  -1992.566650  -8820.003906     54.080730
    9069           0      -660.263672  -1992.566650  -9180.003906     55.806976
    9070           0      -660.263672  -1992.566650  -9540.003906     57.441357
    9071           0      -660.263672  -1992.566650  -9900.003906     59.004074
    9072           0      -660.263672  -1992.566650  -10260.00390     60.526875
    9073           0      -660.263672  -1992.566650  -10620.00390     62.058849
    9074           0      -660.263672  -1992.566650  -10980.00390     63.659458
    9075           0      -660.263672  -1992.566650  -11340.00390     65.382790
    9076           0      -660.263672  -1992.566650  -11700.00390     67.261093
    9077           0      -660.263672  -1992.566650  -12060.00390     69.261597
    9078           0      -660.263672  -1992.566650  -12420.00390     71.382713
    9079           0      -660.263672  -1992.566650  -12780.00390     73.533714
    9080           0      -660.263672  -1992.566650  -13140.00390     75.778503
    9081           0      -660.263672  -1992.566650  -13500.00390     77.989853
    9082           0      -660.263672  -1992.566650  -13860.00390     81.089279
    9083           0      -660.263672  -1992.566650  -14220.00293     78.674751
    9084           0      -543.289124  -2027.586426   -180.003326     23.797302
    9085           0      -543.289124  -2027.586426   -540.003357     21.967384
    9086           0      -543.289124  -2027.586426   -900.003418     19.984402
    9087           0      -543.289124  -2027.586426  -1260.003418     17.770384
    9088           0      -543.289124  -2027.586426  -1620.003418     16.112324
    9089           0      -543.289124  -2027.586426  -1980.003418     14.745986
    9090           0      -543.289124  -2027.586426  -2340.003418     13.985047
    9091           0      -543.289124  -2027.586426  -2700.003418     13.943874
    9092           0      -543.289124  -2027.586426  -3060.003418     14.706543
    9093           0      -543.289124  -2027.586426  -3420.003418     16.226322
    9094           0      -543.289124  -2027.586426  -3780.003662     18.350672
    9095           0      -543.289124  -2027.586426  -4140.003418     20.890411
    9096           0      -543.289124  -2027.586426  -4500.003906     23.676985
    9097           0      -543.289124  -2027.586426  -4860.003906     26.580229
    9098           0      -543.289124  -2027.586426  -5220.003906     29.510422
    9099           0      -543.289124  -2027.586426  -5580.003418     32.408810
    9100           0      -543.289124  -2027.586426  -5940.003418     35.239296
    9101           0      -543.289124  -2027.586426  -6300.003906     37.980793
    9102           0      -543.289124  -2027.586426  -6660.003906     40.621193
    9103           0      -543.289124  -2027.586426  -7020.003906     43.153130
    9104           0      -543.289124  -2027.586426  -7380.003418     45.571075
    9105           0      -543.289124  -2027.586426  -7740.003906     47.869595
    9106           0      -543.289124  -2027.586426  -8100.003906     50.043266
    9107           0      -543.289124  -2027.586426  -8460.003906     52.087402
    9108           0      -543.289124  -2027.586426  -8820.003906     54.000862
    9109           0      -543.289124  -2027.586426  -9180.003906     55.789577
    9110           0      -543.289063  -2027.586426  -9540.002930     57.470917
    9111           0      -543.289063  -2027.586426  -9900.003906     59.078167
    9112           0      -543.289063  -2027.586426  -10260.00390     60.658928
    9113           0      -543.289063  -2027.586426  -10620.00390     62.274040
    9114           0      -543.289063  -2027.586426  -10980.00390     63.975445
    9115           0      -543.289063  -2027.586426  -11340.00390     65.801079
    9116           0      -543.289063  -2027.586426  -11700.00390     67.743462
    9117           0      -543.289063  -2027.586426  -12060.00390     69.788216
    9118           0      -543.289063  -2027.586426  -12420.00390     71.896194
    9119           0      -543.289063  -2027.586426  -12780.00390     74.089195
    9120           0      -543.289063  -2027.586426  -13140.00390     76.290855
    9121           0      -543.289063  -2027.586426  -13500.00390     78.610886
    9122           0      -543.289063  -2027.586426  -13860.00390     81.678963
    9123           0      -543.289124  -2027.586426  -14220.00293     79.321243
    9124           0      -424.476318  -2055.745605   -180.003326     21.498013
    9125           0      -424.476318  -2055.745605   -540.003357     19.707470
    9126           0      -424.476318  -2055.745605   -900.003418     17.680487
    9127           0      -424.476318  -2055.745605  -1260.003418     15.561335
    9128           0      -424.476318  -2055.745605  -1620.003418     13.915676
    9129           0      -424.476318  -2055.745605  -1980.003540     12.707749
    9130           0      -424.476318  -2055.745605  -2340.003662     12.204269
    9131           0      -424.476318  -2055.745605  -2700.003662     12.558725
    9132           0      -424.476318  -2055.745605  -3060.003418     13.774113
    9133           0      -424.476318  -2055.745605  -3420.003906     15.722262
    9134           0      -424.476318  -2055.745605  -3780.003906     18.216732
    9135           0      -424.476318  -2055.745605  -4140.003906     21.067204
    9136           0      -424.476318  -2055.745605  -4500.003906     24.116747
    9137           0      -424.476318  -2055.745605  -4860.003906     27.239672
    9138           0      -424.476318  -2055.745605  -5220.003906     30.347595
    9139           0      -424.476318  -2055.745605  -5580.003906     33.381207
    9140           0      -424.476318  -2055.745605  -5940.003418     36.304970
    9141           0      -424.476318  -2055.745605  -6300.003906     39.099228
    9142           0      -424.476318  -2055.745605  -6660.003906     41.754143
    9143           0      -424.476318  -2055.745605  -7020.003906     44.265121
    9144           0      -424.476318  -2055.745605  -7380.003906     46.629936
    9145           0      -424.476318  -2055.745605  -7740.003906     48.847656
    9146           0      -424.476318  -2055.745605  -8100.003418     50.919018
    9147           0      -424.476318  -2055.745605  -8460.003906     52.848110
    9148           0      -424.476318  -2055.745605  -8820.003906     54.645191
    9149           0      -424.476318  -2055.745605  -9180.003906     56.330219
    9150           0      -424.476288  -2055.745605  -9540.003906     57.935211
    9151           0      -424.476288  -2055.745605  -9900.003906     59.506096
    9152           0      -424.476288  -2055.745605  -10260.00390     61.095245
    9153           0      -424.476288  -2055.745605  -10620.00390     62.757736
    9154           0      -424.476288  -2055.745605  -10980.00390     64.523491
    9155           0      -424.476288  -2055.745605  -11340.00390     66.412407
    9156           0      -424.476288  -2055.745605  -11700.00390     68.392479
    9157           0      -424.476288  -2055.745605  -12060.00390     70.478134
    9158           0      -424.476288  -2055.745605  -12420.00390     72.598816
    9159           0      -424.476288  -2055.745605  -12780.00390     74.870872
    9160           0      -424.476288  -2055.745605  -13140.00390     77.079468
    9161           0      -424.476288  -2055.745605  -13500.00390     79.554710
    9162           0      -424.476288  -2055.745605  -13860.00390     82.646271
    9163           0      -424.476318  -2055.745605  -14220.00293     80.378761
    9164           0      -304.227173  -2076.948730   -180.003326     19.182024
    9165           0      -304.227173  -2076.948730   -540.003357     17.440666
    9166           0      -304.227173  -2076.948730   -900.003418     15.385755
    9167           0      -304.227173  -2076.948730  -1260.003418     13.377476
    9168           0      -304.227173  -2076.948730  -1620.003418     11.801744
    9169           0      -304.227173  -2076.948730  -1980.003540     10.865947
    9170           0      -304.227173  -2076.948730  -2340.003906     10.808075
    9171           0      -304.227173  -2076.948730  -2700.003906     11.753689
    9172           0      -304.227173  -2076.948730  -3060.003418     13.552554
    9173           0      -304.227173  -2076.948730  -3420.003418     15.976939
    9174           0      -304.227173  -2076.948730  -3780.003418     18.833130
    9175           0      -304.227173  -2076.948730  -4140.003906     21.961561
    9176           0      -304.227173  -2076.948730  -4500.003906     25.241690
    9177           0      -304.227173  -2076.948730  -4860.003906     28.568369
    9178           0      -304.227173  -2076.948730  -5220.003906     31.859243
    9179           0      -304.227173  -2076.948730  -5580.003906     35.049122
    9180           0      -304.227173  -2076.948730  -5940.003906     38.090878
    9181           0      -304.227173  -2076.948730  -6300.003906     40.951744
    9182           0      -304.227173  -2076.948730  -6660.003906     43.611694
    9183           0      -304.227173  -2076.948730  -7020.003906     46.061298
    9184           0      -304.227173  -2076.948730  -7380.003906     48.300873
    9185           0      -304.227173  -2076.948730  -7740.003906     50.339691
    9186           0      -304.227173  -2076.948730  -8100.003906     52.195969
    9187           0      -304.227173  -2076.948730  -8460.003906     53.896572
    9188           0      -304.227173  -2076.948730  -8820.003906     55.476978
    9189           0      -304.227173  -2076.948730  -9180.003906     56.980492
    9190           0      -304.227173  -2076.948730  -9540.003906     58.455925
    9191           0      -304.227173  -2076.948730  -9900.003906     59.955029
    9192           0      -304.227173  -2076.948730  -10260.00390     61.522423
    9193           0      -304.227173  -2076.948730  -10620.00390     63.195274
    9194           0      -304.227173  -2076.948730  -10980.00390     64.979729
    9195           0      -304.227173  -2076.948730  -11340.00390     66.886238
    9196           0      -304.227173  -2076.948730  -11700.00390     68.873772
    9197           0      -304.227173  -2076.948730  -12060.00390     70.986572
    9198           0      -304.227173  -2076.948730  -12420.00390     73.125183
    9199           0      -304.227173  -2076.948730  -12780.00390     75.480438
    9200           0      -304.227173  -2076.948730  -13140.00390     77.713867
    9201           0      -304.227173  -2076.948730  -13500.00390     80.346977
    9202           0      -304.227173  -2076.948730  -13860.00390     83.477951
    9203           0      -304.227173  -2076.948730  -14220.00293     81.318344
    9204           0      -182.948608  -2091.124023   -180.003326     17.318983
    9205           0      -182.948608  -2091.124023   -540.003357     15.612872
    9206           0      -182.948608  -2091.124023   -900.003418     13.501721
    9207           0      -182.948608  -2091.124023  -1260.003418     11.551633
    9208           0      -182.948593  -2091.124023  -1620.003418     10.018750
    9209           0      -182.948593  -2091.124023  -1980.003418      9.348001
    9210           0      -182.948593  -2091.124023  -2340.003418      9.752238
    9211           0      -182.948593  -2091.124023  -2700.003418     11.261744
    9212           0      -182.948593  -2091.124023  -3060.003418     13.561972
    9213           0      -182.948593  -2091.124023  -3420.003418     16.362579
    9214           0      -182.948593  -2091.124023  -3780.003662     19.482826
    9215           0      -182.948593  -2091.124023  -4140.003418     22.797878
    9216           0      -182.948593  -2091.124023  -4500.003906     26.225105
    9217           0      -182.948593  -2091.124023  -4860.003906     29.685604
    9218           0      -182.948578  -2091.124023  -5220.003906     33.107674
    9219           0      -182.948563  -2091.124023  -5580.003418     36.421570
    9220           0      -182.948563  -2091.124023  -5940.003418     39.565769
    9221           0      -182.948563  -2091.124023  -6300.003906     42.489426
    9222           0      -182.948563  -2091.124023  -6660.003906     45.156513
    9223           0      -182.948563  -2091.124023  -7020.003906     47.548061
    9224           0      -182.948563  -2091.124023  -7380.003418     49.663765
    9225           0      -182.948563  -2091.124023  -7740.003906     51.522285
    9226           0      -182.948563  -2091.124023  -8100.003906     53.160202
    9227           0      -182.948563  -2091.124023  -8460.003906     54.629467
    9228           0      -182.948563  -2091.124023  -8820.003906     55.992645
    9229           0      -182.948563  -2091.124023  -9180.003906     57.316772
    9230           0      -182.948563  -2091.124023  -9540.002930     58.664371
    9231           0      -182.948563  -2091.124023  -9900.003906     60.087509
    9232           0      -182.948563  -2091.124023  -10260.00390     61.616913
    9233           0      -182.948563  -2091.124023  -10620.00390     63.270531
    9234           0      -182.948563  -2091.124023  -10980.00390     65.036804
    9235           0      -182.948563  -2091.124023  -11340.00390     66.925919
    9236           0      -182.948563  -2091.124023  -11700.00390     68.896484
    9237           0      -182.948563  -2091.124023  -12060.00390     71.016266
    9238           0      -182.948547  -2091.124023  -12420.00390     73.162331
    9239           0      -182.948547  -2091.124023  -12780.00390     75.576286
    9240           0      -182.948547  -2091.124023  -13140.00390     77.829430
    9241           0      -182.948547  -2091.124023  -13500.00390     80.579124
    9242           0      -182.948547  -2091.124023  -13860.00390     83.741890
    9243           0      -182.948578  -2091.124023  -14220.00293     81.680420
    9244           0       -61.051060  -2098.223633   -180.003326     16.285303
    9245           0       -61.051060  -2098.223633   -540.003357     14.583949
    9246           0       -61.051060  -2098.223633   -900.003418     12.379499
    9247           0       -61.051060  -2098.223633  -1260.003418     10.382031
    9248           0       -61.051056  -2098.223633  -1620.003418      8.773201
    9249           0       -61.051048  -2098.223633  -1980.003540      8.185616
    9250           0       -61.051048  -2098.223633  -2340.003662      8.841688
    9251           0       -61.051048  -2098.223633  -2700.003662     10.685525
    9252           0       -61.051048  -2098.223633  -3060.003418     13.276410
    9253           0       -61.051048  -2098.223633  -3420.003906     16.290363
    9254           0       -61.051048  -2098.223633  -3780.003906     19.554790
    9255           0       -61.051048  -2098.223633  -4140.003906     22.964693
    9256           0       -61.051048  -2098.223633  -4500.003906     26.460781
    9257           0       -61.051048  -2098.223633  -4860.003906     29.982906
    9258           0       -61.051041  -2098.223633  -5220.003906     33.468552
    9259           0       -61.051037  -2098.223633  -5580.003906     36.846466
    9260           0       -61.051037  -2098.223633  -5940.003418     40.045963
    9261           0       -61.051037  -2098.223633  -6300.003906     43.003696
    9262           0       -61.051037  -2098.223633  -6660.003906     45.672012
    9263           0       -61.051037  -2098.223633  -7020.003906     48.024235
    9264           0       -61.051037  -2098.223633  -7380.003906     50.058273
    9265           0       -61.051037  -2098.223633  -7740.003906     51.797607
    9266           0       -61.051037  -2098.223633  -8100.003418     53.290016
    9267           0       -61.051037  -2098.223633  -8460.003906     54.603264
    9268           0       -61.051033  -2098.223633  -8820.003906     55.817501
    9269           0       -61.051025  -2098.223633  -9180.003906     57.014896
    9270           0       -61.051025  -2098.223633  -9540.003906     58.266449
    9271           0       -61.051025  -2098.223633  -9900.003906     59.623276
    9272           0       -61.051025  -2098.223633  -10260.00390     61.106655
    9273           0       -61.051025  -2098.223633  -10620.00390     62.722519
    9274           0       -61.051025  -2098.223633  -10980.00390     64.450951
    9275           0       -61.051025  -2098.223633  -11340.00390     66.304077
    9276           0       -61.051025  -2098.223633  -11700.00390     68.242592
    9277           0       -61.051025  -2098.223633  -12060.00390     70.346352
    9278           0       -61.051025  -2098.223633  -12420.00390     72.479561
    9279           0       -61.051018  -2098.223633  -12780.00390     74.908951
    9280           0       -61.051014  -2098.223633  -13140.00390     77.158768
    9281           0       -61.051014  -2098.223633  -13500.00390     79.956726
    9282           0       -61.051014  -2098.223633  -13860.00390     83.116913
    9283           0       -61.051037  -2098.223633  -14220.00293     81.137062
    9284           0        61.053070  -2098.223633   -180.003326     16.315720
    9285           0        61.053070  -2098.223633   -540.003357     14.601294
    9286           0        61.053070  -2098.223633   -900.003418     12.291162
    9287           0        61.053070  -2098.223633  -1260.003418     10.147322
    9288           0        61.053070  -2098.223633  -1620.003418      8.308155
    9289           0        61.053070  -2098.223633  -1980.003540      7.465508
    9290           0        61.053070  -2098.223633  -2340.003906      7.946352
    9291           0        61.053070  -2098.223633  -2700.003906      9.754791
    9292           0        61.053070  -2098.223633  -3060.003418     12.364436
    9293           0        61.053074  -2098.223633  -3420.003418     15.405329
    9294           0        61.053078  -2098.223633  -3780.003418     18.688681
    9295           0        61.053078  -2098.223633  -4140.003906     22.108595
    9296           0        61.053078  -2098.223633  -4500.003906     25.607573
    9297           0        61.053078  -2098.223633  -4860.003906     29.127934
    9298           0        61.053078  -2098.223633  -5220.003906     32.608814
    9299           0        61.053078  -2098.223633  -5580.003906     35.979809
    9300           0        61.053078  -2098.223633  -5940.003906     39.170387
    9301           0        61.053078  -2098.223633  -6300.003906     42.116856
    9302           0        61.053078  -2098.223633  -6660.003906     44.770962
    9303           0        61.053078  -2098.223633  -7020.003906     47.105251
    9304           0        61.053078  -2098.223633  -7380.003906     49.116867
    9305           0        61.053078  -2098.223633  -7740.003906     50.828651
    9306           0        61.053078  -2098.223633  -8100.003906     52.288025
    9307           0        61.053078  -2098.223633  -8460.003906     53.562809
    9308           0        61.053078  -2098.223633  -8820.003906     54.733727
    9309           0        61.053078  -2098.223633  -9180.003906     55.884083
    9310           0        61.053078  -2098.223633  -9540.003906     57.086472
    9311           0        61.053078  -2098.223633  -9900.003906     58.393772
    9312           0        61.053078  -2098.223633  -10260.00390     59.828869
    9313           0        61.053078  -2098.223633  -10620.00390     61.398682
    9314           0        61.053078  -2098.223633  -10980.00390     63.083569
    9315           0        61.053082  -2098.223633  -11340.00390     64.895210
    9316           0        61.053082  -2098.223633  -11700.00390     66.793961
    9317           0        61.053082  -2098.223633  -12060.00390     68.859032
    9318           0        61.053082  -2098.223633  -12420.00390     70.955078
    9319           0        61.053082  -2098.223633  -12780.00390     73.347084
    9320           0        61.053082  -2098.223633  -13140.00390     75.563118
    9321           0        61.053082  -2098.223633  -13500.00390     78.322823
    9322           0        61.053082  -2098.223633  -13860.00390     81.439529
    9323           0        61.053078  -2098.223633  -14220.00293     79.509979
    9324           0       182.950684  -2091.123779   -180.003326     17.454603
    9325           0       182.950684  -2091.123779   -540.003357     15.722197
    9326           0       182.950684  -2091.123779   -900.003418     13.338016
    9327           0       182.950684  -2091.123779  -1260.003418     11.003695
    9328           0       182.950684  -2091.123779  -1620.003418      8.875835
    9329           0       182.950684  -2091.123779  -1980.003418      7.469344
    9330           0       182.950684  -2091.123779  -2340.003418      7.229726
    9331           0       182.950684  -2091.123779  -2700.003418      8.482959
    9332           0       182.950684  -2091.123779  -3060.003418     10.765239
    9333           0       182.950684  -2091.123779  -3420.003418     13.619316
    9334           0       182.950684  -2091.123779  -3780.003662     16.787203
    9335           0       182.950699  -2091.123779  -4140.003418     20.129080
    9336           0       182.950714  -2091.123779  -4500.003906     23.563307
    9337           0       182.950714  -2091.123779  -4860.003906     27.016710
    9338           0       182.950714  -2091.123779  -5220.003906     30.422249
    9339           0       182.950714  -2091.123779  -5580.003418     33.713001
    9340           0       182.950714  -2091.123779  -5940.003418     36.828377
    9341           0       182.950714  -2091.123779  -6300.003906     39.717087
    9342           0       182.950714  -2091.123779  -6660.003906     42.341736
    9343           0       182.950714  -2091.123779  -7020.003906     44.681503
    9344           0       182.950714  -2091.123779  -7380.003418     46.734119
    9345           0       182.950714  -2091.123779  -7740.003906     48.516529
    9346           0       182.950714  -2091.123779  -8100.003906     50.064217
    9347           0       182.950714  -2091.123779  -8460.003906     51.428982
    9348           0       182.950714  -2091.123779  -8820.003906     52.674454
    9349           0       182.950714  -2091.123779  -9180.003906     53.870071
    9350           0       182.950714  -2091.123779  -9540.002930     55.082016
    9351           0       182.950729  -2091.123779  -9900.003906     56.366768
    9352           0       182.950729  -2091.123779  -10260.00390     57.759377
    9353           0       182.950729  -2091.123779  -10620.00390     59.280949
    9354           0       182.950729  -2091.123779  -10980.00390     60.921352
    9355           0       182.950729  -2091.123779  -11340.00390     62.690083
    9356           0       182.950729  -2091.123779  -11700.00390     64.544716
    9357           0       182.950729  -2091.123779  -12060.00390     66.551270
    9358           0       182.950729  -2091.123779  -12420.00390     68.587662
    9359           0       182.950729  -2091.123779  -12780.00390     70.890915
    9360           0       182.950729  -2091.123779  -13140.00390     73.043007
    9361           0       182.950745  -2091.123535  -13500.00390     75.679008
    9362           0       182.950745  -2091.123535  -13860.00390     78.710381
    9363           0       182.950714  -2091.123535  -14220.00293     76.801521
    9364           0       304.229187  -2076.948242   -180.003326     19.513775
    9365           0       304.229187  -2076.948242   -540.003357     17.768471
    9366           0       304.229187  -2076.948242   -900.003418     15.353933
    9367           0       304.229187  -2076.948242  -1260.003418     12.834606
    9368           0       304.229187  -2076.948242  -1620.003418     10.490879
    9369           0       304.229187  -2076.948242  -1980.003540      8.497673
    9370           0       304.229187  -2076.948242  -2340.003662      7.236414
    9371           0       304.229187  -2076.948242  -2700.003662      7.317532
    9372           0       304.229187  -2076.948242  -3060.003418      8.765385
    9373           0       304.229187  -2076.948242  -3420.003906     11.139659
    9374           0       304.229187  -2076.948242  -3780.003906     14.025174
    9375           0       304.229187  -2076.948242  -4140.003906     17.180828
    9376           0       304.229187  -2076.948242  -4500.003906     20.465500
    9377           0       304.229187  -2076.948242  -4860.003906     23.775501
    9378           0       304.229187  -2076.948242  -5220.003906     27.034088
    9379           0       304.229187  -2076.948242  -5580.003906     30.180969
    9380           0       304.229187  -2076.948242  -5940.003418     33.171776
    9381           0       304.229187  -2076.948242  -6300.003906     35.974396
    9382           0       304.229187  -2076.948242  -6660.003906     38.567860
    9383           0       304.229187  -2076.948242  -7020.003906     40.940804
    9384           0       304.229187  -2076.948242  -7380.003906     43.091076
    9385           0       304.229187  -2076.948242  -7740.003906     45.025478
    9386           0       304.229187  -2076.948242  -8100.003418     46.760151
    9387           0       304.229187  -2076.948242  -8460.003906     48.320694
    9388           0       304.229187  -2076.948242  -8820.003906     49.742496
    9389           0       304.229187  -2076.948242  -9180.003906     51.070324
    9390           0       304.229187  -2076.948242  -9540.003906     52.356098
    9391           0       304.229218  -2076.948242  -9900.003906     53.656311
    9392           0       304.229248  -2076.948242  -10260.00390     55.021244
    9393           0       304.229248  -2076.948242  -10620.00390     56.493397
    9394           0       304.229248  -2076.948242  -10980.00390     58.082691
    9395           0       304.229248  -2076.948242  -11340.00390     59.800278
    9396           0       304.229248  -2076.948242  -11700.00390     61.604351
    9397           0       304.229248  -2076.948242  -12060.00390     63.536297
    9398           0       304.229248  -2076.948242  -12420.00390     65.497879
    9399           0       304.229248  -2076.948242  -12780.00390     67.672241
    9400           0       304.229248  -2076.948242  -13140.00390     69.739738
    9401           0       304.229248  -2076.948242  -13500.00390     72.183815
    9402           0       304.229248  -2076.948242  -13860.00390     75.097908
    9403           0       304.229187  -2076.948242  -14220.00293     73.189415
    9404           0       424.478271  -2055.745117   -180.003326     22.104214
    9405           0       424.478271  -2055.745117   -540.003357     20.356224
    9406           0       424.478271  -2055.745117   -900.003418     17.950903
    9407           0       424.478271  -2055.745117  -1260.003418     15.275334
    9408           0       424.478271  -2055.745117  -1620.003418     12.835776
    9409           0       424.478271  -2055.745117  -1980.003540     10.464506
    9410           0       424.478271  -2055.745117  -2340.003906      8.448429
    9411           0       424.478271  -2055.745117  -2700.003906      7.198623
    9412           0       424.478271  -2055.745117  -3060.003418      7.223335
    9413           0       424.478271  -2055.745117  -3420.003418      8.624918
    9414           0       424.478271  -2055.745117  -3780.003418     10.950547
    9415           0       424.478271  -2055.745117  -4140.003906     13.758680
    9416           0       424.478271  -2055.745117  -4500.003906     16.785339
    9417           0       424.478271  -2055.745117  -4860.003906     19.875126
    9418           0       424.478271  -2055.745117  -5220.003906     22.936087
    9419           0       424.478271  -2055.745117  -5580.003906     25.912134
    9420           0       424.478271  -2055.745117  -5940.003906     28.771248
    9421           0       424.478271  -2055.745117  -6300.003906     31.495535
    9422           0       424.478271  -2055.745117  -6660.003906     34.075176
    9423           0       424.478271  -2055.745117  -7020.003906     36.504025
    9424           0       424.478271  -2055.745117  -7380.003906     38.777344
    9425           0       424.478271  -2055.745117  -7740.003906     40.891090
    9426           0       424.478271  -2055.745117  -8100.003906     42.842735
    9427           0       424.478271  -2055.745117  -8460.003906     44.633366
    9428           0       424.478271  -2055.745117  -8820.003906     46.270866
    9429           0       424.478271  -2055.745117  -9180.003906     47.774033
    9430           0       424.478271  -2055.745117  -9540.003906     49.175327
    9431           0       424.478271  -2055.745117  -9900.003906     50.523247
    9432           0       424.478271  -2055.745117  -10260.00390     51.874901
    9433           0       424.478271  -2055.745117  -10620.00390     53.291603
    9434           0       424.478271  -2055.745117  -10980.00390     54.809784
    9435           0       424.478271  -2055.745117  -11340.00390     56.453247
    9436           0       424.478271  -2055.745117  -11700.00390     58.191521
    9437           0       424.478271  -2055.745117  -12060.00390     60.036182
    9438           0       424.478302  -2055.745117  -12420.00390     61.918221
    9439           0       424.478302  -2055.745117  -12780.00390     63.943428
    9440           0       424.478302  -2055.745117  -13140.00390     65.923767
    9441           0       424.478302  -2055.745117  -13500.00390     68.136345
    9442           0       424.478302  -2055.745117  -13860.00390     70.926704
    9443           0       424.478271  -2055.745117  -14220.00293     69.008400
    9444           0       543.291138  -2027.586060   -180.003326     24.700438
    9445           0       543.291138  -2027.586060   -540.003357     22.970877
    9446           0       543.291138  -2027.586060   -900.003418     20.623980
    9447           0       543.291138  -2027.586060  -1260.003418     17.845488
    9448           0       543.291138  -2027.586060  -1620.003418     15.431426
    9449           0       543.291138  -2027.586060  -1980.003418     12.919873
    9450           0       543.291138  -2027.586060  -2340.003418     10.634256
    9451           0       543.291138  -2027.586060  -2700.003418      8.686939
    9452           0       543.291138  -2027.586060  -3060.003418      7.477953
    9453           0       543.291138  -2027.586060  -3420.003418      7.490568
    9454           0       543.291138  -2027.586060  -3780.003662      8.808675
    9455           0       543.291138  -2027.586060  -4140.003418     11.004937
    9456           0       543.291138  -2027.585938  -4500.003906     13.644992
    9457           0       543.291138  -2027.585938  -4860.003906     16.469826
    9458           0       543.291138  -2027.585938  -5220.003906     19.340948
    9459           0       543.291138  -2027.585938  -5580.003418     22.182690
    9460           0       543.291138  -2027.585938  -5940.003418     24.953281
    9461           0       543.291138  -2027.585938  -6300.003906     27.629292
    9462           0       543.291138  -2027.585938  -6660.003906     30.197197
    9463           0       543.291138  -2027.585938  -7020.003906     32.648132
    9464           0       543.291138  -2027.585938  -7380.003418     34.974823
    9465           0       543.291138  -2027.585938  -7740.003906     37.169788
    9466           0       543.291138  -2027.585938  -8100.003906     39.225220
    9467           0       543.291138  -2027.585938  -8460.003906     41.133801
    9468           0       543.291138  -2027.585938  -8820.003906     42.891525
    9469           0       543.291138  -2027.585938  -9180.003906     44.501644
    9470           0       543.291138  -2027.585938  -9540.002930     45.979301
    9471           0       543.291138  -2027.585938  -9900.003906     47.356937
    9472           0       543.291138  -2027.585938  -10260.00390     48.683434
    9473           0       543.291138  -2027.585938  -10620.00390     50.023602
    9474           0       543.291138  -2027.585938  -10980.00390     51.436348
    9475           0       543.291138  -2027.585938  -11340.00390     52.966415
    9476           0       543.291138  -2027.585938  -11700.00390     54.612179
    9477           0       543.291138  -2027.585938  -12060.00390     56.358425
    9478           0       543.291138  -2027.585938  -12420.00390     58.169201
    9479           0       543.291138  -2027.585938  -12780.00390     60.051872
    9480           0       543.291138  -2027.585938  -13140.00390     61.966034
    9481           0       543.291138  -2027.585938  -13500.00390     63.950783
    9482           0       543.291138  -2027.585938  -13860.00390     66.637192
    9483           0       543.291138  -2027.586060  -14220.00293     64.723717
    9484           0       660.265625  -1992.566162   -180.003326     26.705372
    9485           0       660.265625  -1992.566162   -540.003357     25.036453
    9486           0       660.265625  -1992.566162   -900.003418     22.821365
    9487           0       660.265625  -1992.566162  -1260.003418     20.034769
    9488           0       660.265625  -1992.566162  -1620.003418     17.772964
    9489           0       660.265625  -1992.566162  -1980.003540     15.331731
    9490           0       660.265625  -1992.566162  -2340.003662     13.143166
    9491           0       660.265625  -1992.566162  -2700.003662     11.154827
    9492           0       660.265625  -1992.566162  -3060.003418      9.651597
    9493           0       660.265625  -1992.566162  -3420.003906      8.979836
    9494           0       660.265625  -1992.566162  -3780.003906      9.448163
    9495           0       660.265625  -1992.566162  -4140.003906     10.974386
    9496           0       660.265625  -1992.566162  -4500.003906     13.198361
    9497           0       660.265625  -1992.565918  -4860.003906     15.789371
    9498           0       660.265625  -1992.565918  -5220.003906     18.531023
    9499           0       660.265625  -1992.565918  -5580.003906     21.291740
    9500           0       660.265625  -1992.565918  -5940.003418     23.989929
    9501           0       660.265625  -1992.565918  -6300.003906     26.575659
    9502           0       660.265625  -1992.565918  -6660.003906     29.020035
    9503           0       660.265625  -1992.565918  -7020.003906     31.309780
    9504           0       660.265625  -1992.565918  -7380.003906     33.442543
    9505           0       660.265625  -1992.565918  -7740.003906     35.423393
    9506           0       660.265625  -1992.565918  -8100.003418     37.261269
    9507           0       660.265625  -1992.565918  -8460.003906     38.966290
    9508           0       660.265625  -1992.565918  -8820.003906     40.547974
    9509           0       660.265625  -1992.565918  -9180.003906     42.015476
    9510           0       660.265625  -1992.565918  -9540.003906     43.379211
    9511           0       660.265625  -1992.565918  -9900.003906     44.656574
    9512           0       660.265625  -1992.565918  -10260.00390     45.876198
    9513           0       660.265625  -1992.565918  -10620.00390     47.085079
    9514           0       660.265625  -1992.565918  -10980.00390     48.344601
    9515           0       660.265625  -1992.565918  -11340.00390     49.713348
    9516           0       660.265625  -1992.565918  -11700.00390     51.231895
    9517           0       660.265625  -1992.565918  -12060.00390     52.869606
    9518           0       660.265625  -1992.565918  -12420.00390     54.631111
    9519           0       660.265625  -1992.565918  -12780.00390     56.407486
    9520           0       660.265625  -1992.565918  -13140.00390     58.306664
    9521           0       660.265625  -1992.565918  -13500.00390     60.112274
    9522           0       660.265625  -1992.565918  -13860.00390     62.752647
    9523           0       660.265625  -1992.566162  -14220.00293     60.877399
    9524           0       775.005920  -1950.803833   -180.003326     27.513725
    9525           0       775.005920  -1950.803833   -540.003357     25.970785
    9526           0       775.005920  -1950.803833   -900.003418     23.995602
    9527           0       775.005920  -1950.803833  -1260.003418     21.342905
    9528           0       775.005920  -1950.803833  -1620.003418     19.375160
    9529           0       775.005920  -1950.803833  -1980.003540     17.195835
    9530           0       775.005920  -1950.803833  -2340.003906     15.346350
    9531           0       775.005920  -1950.803833  -2700.003906     13.696033
    9532           0       775.005920  -1950.803833  -3060.003418     12.553055
    9533           0       775.005920  -1950.803833  -3420.003418     12.194840
    9534           0       775.005920  -1950.803833  -3780.003418     12.851424
    9535           0       775.005920  -1950.803833  -4140.003906     14.455629
    9536           0       775.005920  -1950.803833  -4500.003906     16.726189
    9537           0       775.005920  -1950.803833  -4860.003906     19.362066
    9538           0       775.005920  -1950.803833  -5220.003906     22.128899
    9539           0       775.005920  -1950.803833  -5580.003906     24.864805
    9540           0       775.005920  -1950.803833  -5940.003906     27.460855
    9541           0       775.005920  -1950.803833  -6300.003906     29.848402
    9542           0       775.005920  -1950.803833  -6660.003906     31.989254
    9543           0       775.005920  -1950.803833  -7020.003906     33.870857
    9544           0       775.005920  -1950.803833  -7380.003906     35.501797
    9545           0       775.005920  -1950.803833  -7740.003906     36.907761
    9546           0       775.005920  -1950.803833  -8100.003906     38.127182
    9547           0       775.005920  -1950.803833  -8460.003906     39.205479
    9548           0       775.005920  -1950.803833  -8820.003906     40.189453
    9549           0       775.005920  -1950.803833  -9180.003906     41.120884
    9550           0       775.005920  -1950.803833  -9540.003906     42.032497
    9551           0       775.005920  -1950.803833  -9900.003906     42.946693
    9552           0       775.005920  -1950.803833  -10260.00390     43.880131
    9553           0       775.005920  -1950.803833  -10620.00390     44.851421
    9554           0       775.005920  -1950.803833  -10980.00390     45.899109
    9555           0       775.005920  -1950.803833  -11340.00390     47.066959
    9556           0       775.005920  -1950.803833  -11700.00390     48.430740
    9557           0       775.005920  -1950.803833  -12060.00390     49.956966
    9558           0       775.005920  -1950.803833  -12420.00390     51.703526
    9559           0       775.005920  -1950.803833  -12780.00390     53.442928
    9560           0       775.005920  -1950.803833  -13140.00390     55.405884
    9561           0       775.005920  -1950.803833  -13500.00390     57.135601
    9562           0       775.005920  -1950.803833  -13860.00390     59.816544
    9563           0       775.005920  -1950.803833  -14220.00293     58.041542
    9564           0       887.123901  -1902.440918   -180.003326     26.574190
    9565           0       887.123901  -1902.440918   -540.003357     25.251160
    9566           0       887.123901  -1902.440918   -900.003418     23.652100
    9567           0       887.123901  -1902.440918  -1260.003418     21.324026
    9568           0       887.123901  -1902.440918  -1620.003418     19.802406
    9569           0       887.123901  -1902.440918  -1980.003418     18.066179
    9570           0       887.123901  -1902.440918  -2340.003418     16.738718
    9571           0       887.123901  -1902.440918  -2700.003418     15.701228
    9572           0       887.123901  -1902.440918  -3060.003418     15.355712
    9573           0       887.123901  -1902.440918  -3420.003418     15.945606
    9574           0       887.123901  -1902.440918  -3780.003662     17.539251
    9575           0       887.123901  -1902.440918  -4140.003418     19.922789
    9576           0       887.123901  -1902.440918  -4500.003906     22.776947
    9577           0       887.123901  -1902.440918  -4860.003906     25.814028
    9578           0       887.123901  -1902.440918  -5220.003906     28.816153
    9579           0       887.123901  -1902.440918  -5580.003418     31.631918
    9580           0       887.123901  -1902.440918  -5940.003418     34.159969
    9581           0       887.123901  -1902.440918  -6300.003906     36.338100
    9582           0       887.123901  -1902.440918  -6660.003906     38.134567
    9583           0       887.123901  -1902.440918  -7020.003906     39.543827
    9584           0       887.123901  -1902.440796  -7380.003418     40.583469
    9585           0       887.123901  -1902.440796  -7740.003906     41.292274
    9586           0       887.123901  -1902.440796  -8100.003906     41.727741
    9587           0       887.123901  -1902.440796  -8460.003906     41.963486
    9588           0       887.123901  -1902.440796  -8820.003906     42.083485
    9589           0       887.123901  -1902.440796  -9180.003906     42.175629
    9590           0       887.123901  -1902.440796  -9540.002930     42.320690
    9591           0       887.123901  -1902.440796  -9900.003906     42.583576
    9592           0       887.123901  -1902.440796  -10260.00390     43.004566
    9593           0       887.123901  -1902.440796  -10620.00390     43.598473
    9594           0       887.123901  -1902.440796  -10980.00390     44.375732
    9595           0       887.123901  -1902.440796  -11340.00390     45.335999
    9596           0       887.123901  -1902.440796  -11700.00390     46.552799
    9597           0       887.123901  -1902.440796  -12060.00390     47.989075
    9598           0       887.123901  -1902.440796  -12420.00390     49.768200
    9599           0       887.123901  -1902.440796  -12780.00390     51.569351
    9600           0       887.123901  -1902.440796  -13140.00390     53.702282
    9601           0       887.123901  -1902.440796  -13500.00390     55.506897
    9602           0       887.123901  -1902.440796  -13860.00390     58.350002
    9603           0       887.123901  -1902.440796  -14220.00293     56.751842
    9604           0       996.240112  -1847.640503   -180.003326     23.485075
    9605           0       996.240112  -1847.640503   -540.003357     22.502222
    9606           0       996.240112  -1847.640503   -900.003418     21.436476
    9607           0       996.240112  -1847.640503  -1260.003418     19.661058
    9608           0       996.240112  -1847.640503  -1620.003418     18.737720
    9609           0       996.240112  -1847.640503  -1980.003540     17.626589
    9610           0       996.240112  -1847.640503  -2340.003662     17.020773
    9611           0       996.240112  -1847.640503  -2700.003662     16.928362
    9612           0       996.240112  -1847.640503  -3060.003418     17.818260
    9613           0       996.240112  -1847.640503  -3420.003906     19.785248
    9614           0       996.240112  -1847.640503  -3780.003906     22.640469
    9615           0       996.240112  -1847.640503  -4140.003906     26.022198
    9616           0       996.240112  -1847.640503  -4500.003906     29.589382
    9617           0       996.240112  -1847.640503  -4860.003906     33.084732
    9618           0       996.240112  -1847.640503  -5220.003906     36.330120
    9619           0       996.240112  -1847.640503  -5580.003906     39.210060
    9620           0       996.240112  -1847.640503  -5940.003418     41.653610
    9621           0       996.240112  -1847.640503  -6300.003906     43.622868
    9622           0       996.240112  -1847.640503  -6660.003906     45.104481
    9623           0       996.240173  -1847.640503  -7020.003906     46.105400
    9624           0       996.240173  -1847.640503  -7380.003906     46.650391
    9625           0       996.240173  -1847.640503  -7740.003906     46.782005
    9626           0       996.240173  -1847.640503  -8100.003418     46.560238
    9627           0       996.240173  -1847.640503  -8460.003906     46.064232
    9628           0       996.240173  -1847.640503  -8820.003906     45.391151
    9629           0       996.240173  -1847.640503  -9180.003906     44.655331
    9630           0       996.240173  -1847.640503  -9540.003906     43.979866
    9631           0       996.240173  -1847.640503  -9900.003906     43.486355
    9632           0       996.240173  -1847.640503  -10260.00390     43.274929
    9633           0       996.240173  -1847.640503  -10620.00390     43.403515
    9634           0       996.240173  -1847.640503  -10980.00390     43.891781
    9635           0       996.240173  -1847.640503  -11340.00390     44.696304
    9636           0       996.240173  -1847.640503  -11700.00390     45.847588
    9637           0       996.240173  -1847.640503  -12060.00390     47.269154
    9638           0       996.240173  -1847.640503  -12420.00390     49.149952
    9639           0       996.240173  -1847.640503  -12780.00390     51.128498
    9640           0       996.240173  -1847.640503  -13140.00390     53.555561
    9641           0       996.240173  -1847.640503  -13500.00390     55.626949
    9642           0       996.240173  -1847.640503  -13860.00390     58.775177
    9643           0       996.240173  -1847.640503  -14220.00293     57.451370
    9644           0      1101.985352  -1786.588501   -180.003326     18.145962
    9645           0      1101.985352  -1786.588501   -540.003357     17.656162
    9646           0      1101.985352  -1786.588501   -900.003418     17.271984
    9647           0      1101.985352  -1786.588501  -1260.003418     16.300533
    9648           0      1101.985352  -1786.588501  -1620.003418     16.116257
    9649           0      1101.985352  -1786.588501  -1980.003540     15.853523
    9650           0      1101.985352  -1786.588501  -2340.003906     16.271463
    9651           0      1101.985352  -1786.588501  -2700.003906     17.576475
    9652           0      1101.985352  -1786.588501  -3060.003418     20.091072
    9653           0      1101.985352  -1786.588501  -3420.003418     23.583641
    9654           0      1101.985352  -1786.588501  -3780.003418     27.626875
    9655           0      1101.985352  -1786.588501  -4140.003906     31.818142
    9656           0      1101.985352  -1786.588501  -4500.003906     35.866928
    9657           0      1101.985352  -1786.588501  -4860.003906     39.585316
    9658           0      1101.985352  -1786.588501  -5220.003906     42.859528
    9659           0      1101.985352  -1786.588501  -5580.003906     45.626778
    9660           0      1101.985352  -1786.588501  -5940.003906     47.858215
    9661           0      1101.985352  -1786.588501  -6300.003906     49.548042
    9662           0      1101.985352  -1786.588501  -6660.003906     50.706276
    9663           0      1101.985352  -1786.588501  -7020.003906     51.355160
    9664           0      1101.985352  -1786.588501  -7380.003906     51.527107
    9665           0      1101.985352  -1786.588501  -7740.003906     51.265556
    9666           0      1101.985352  -1786.588501  -8100.003906     50.626076
    9667           0      1101.985352  -1786.588501  -8460.003906     49.680256
    9668           0      1101.985352  -1786.588501  -8820.003906     48.518238
    9669           0      1101.985352  -1786.588501  -9180.003906     47.253803
    9670           0      1101.985352  -1786.588501  -9540.003906     46.022350
    9671           0      1101.985352  -1786.588501  -9900.003906     44.978260
    9672           0      1101.985352  -1786.588501  -10260.00390     44.275856
    9673           0      1101.985352  -1786.588501  -10620.00390     44.038612
    9674           0      1101.985352  -1786.588501  -10980.00390     44.340599
    9675           0      1101.985352  -1786.588501  -11340.00390     45.138466
    9676           0      1101.985352  -1786.588501  -11700.00390     46.412800
    9677           0      1101.985352  -1786.588501  -12060.00390     47.996269
    9678           0      1101.985352  -1786.588501  -12420.00390     50.094486
    9679           0      1101.985352  -1786.588501  -12780.00390     52.373634
    9680           0      1101.985352  -1786.588501  -13140.00390     55.214397
    9681           0      1101.985352  -1786.588501  -13500.00390     57.769547
    9682           0      1101.985352  -1786.588501  -13860.00390     61.379593
    9683           0      1101.985352  -1786.588501  -14220.00293     60.442932
    9684           0      1204.001953  -1719.490967   -180.003326     11.465789
    9685           0      1204.001953  -1719.490967   -540.003357     11.677409
    9686           0      1204.001953  -1719.490967   -900.003418     11.943369
    9687           0      1204.001953  -1719.490967  -1260.003418     12.001967
    9688           0      1204.001953  -1719.490967  -1620.003418     12.631282
    9689           0      1204.001953  -1719.490967  -1980.003418     13.483906
    9690           0      1204.001953  -1719.490967  -2340.003418     15.275101
    9691           0      1204.001953  -1719.490967  -2700.003418     18.307413
    9692           0      1204.001953  -1719.490967  -3060.003418     22.430529
    9693           0      1204.001953  -1719.490967  -3420.003418     27.106987
    9694           0      1204.001953  -1719.490967  -3780.003662     31.855663
    9695           0      1204.001953  -1719.490967  -4140.003418     36.359325
    9696           0      1204.001953  -1719.490967  -4500.003906     40.433174
    9697           0      1204.001953  -1719.490967  -4860.003906     43.981590
    9698           0      1204.001953  -1719.490967  -5220.003906     46.963150
    9699           0      1204.001953  -1719.490967  -5580.003418     49.370033
    9700           0      1204.001953  -1719.490967  -5940.003418     51.213615
    9701           0      1204.001953  -1719.490967  -6300.003906     52.517494
    9702           0      1204.001953  -1719.490967  -6660.003906     53.312126
    9703           0      1204.001953  -1719.490967  -7020.003906     53.633221
    9704           0      1204.001953  -1719.490967  -7380.003418     53.520550
    9705           0      1204.001953  -1719.490967  -7740.003906     53.019493
    9706           0      1204.001953  -1719.490967  -8100.003906     52.182762
    9707           0      1204.001953  -1719.490967  -8460.003906     51.075031
    9708           0      1204.001953  -1719.490967  -8820.003906     49.776451
    9709           0      1204.001953  -1719.490967  -9180.003906     48.390472
    9710           0      1204.001953  -1719.490967  -9540.002930     47.045219
    9711           0      1204.001953  -1719.490967  -9900.003906     45.898209
    9712           0      1204.001953  -1719.490967  -10260.00390     45.123417
    9713           0      1204.001953  -1719.490967  -10620.00390     44.885674
    9714           0      1204.001953  -1719.490967  -10980.00390     45.313904
    9715           0      1204.001953  -1719.490967  -11340.00390     46.402977
    9716           0      1204.001953  -1719.490967  -11700.00390     48.116772
    9717           0      1204.001953  -1719.490967  -12060.00390     50.182076
    9718           0      1204.001953  -1719.490967  -12420.00390     52.719189
    9719           0      1204.001953  -1719.490967  -12780.00390     55.447407
    9720           0      1204.001953  -1719.490967  -13140.00390     58.793430
    9721           0      1204.001953  -1719.490967  -13500.00390     62.042370
    9722           0      1204.001953  -1719.490967  -13860.00390     66.279594
    9723           0      1204.001953  -1719.490967  -14220.00293     65.841698
    9724           0      1301.944458  -1646.575439   -180.003326     10.038422
    9725           0      1301.944458  -1646.575439   -540.003357     10.497113
    9726           0      1301.944458  -1646.575439   -900.003418     10.159127
    9727           0      1301.944458  -1646.575439  -1260.003418     10.632959
    9728           0      1301.944458  -1646.575439  -1620.003418     11.376207
    9729           0      1301.944458  -1646.575439  -1980.003540     12.888022
    9730           0      1301.944458  -1646.575439  -2340.003662     15.646927
    9731           0      1301.944458  -1646.575439  -2700.003662     19.829969
    9732           0      1301.944458  -1646.575439  -3060.003418     24.739016
    9733           0      1301.944458  -1646.575439  -3420.003906     29.733637
    9734           0      1301.944458  -1646.575439  -3780.003906     34.419563
    9735           0      1301.944458  -1646.575439  -4140.003906     38.602699
    9736           0      1301.944458  -1646.575439  -4500.003906     42.203644
    9737           0      1301.944458  -1646.575439  -4860.003906     45.205757
    9738           0      1301.944458  -1646.575439  -5220.003906     47.621422
    9739           0      1301.944458  -1646.575439  -5580.003906     49.480499
    9740           0      1301.944458  -1646.575439  -5940.003418     50.817810
    9741           0      1301.944458  -1646.575439  -6300.003906     51.672844
    9742           0      1301.944458  -1646.575439  -6660.003906     52.085781
    9743           0      1301.944458  -1646.575439  -7020.003906     52.098900
    9744           0      1301.944458  -1646.575439  -7380.003906     51.756908
    9745           0      1301.944458  -1646.575439  -7740.003906     51.108818
    9746           0      1301.944458  -1646.575439  -8100.003418     50.211025
    9747           0      1301.944580  -1646.575439  -8460.003906     49.130810
    9748           0      1301.944580  -1646.575439  -8820.003906     47.950672
    9749           0      1301.944580  -1646.575439  -9180.003906     46.774601
    9750           0      1301.944580  -1646.575439  -9540.003906     45.729435
    9751           0      1301.944580  -1646.575439  -9900.003906     44.969875
    9752           0      1301.944580  -1646.575439  -10260.00390     44.666122
    9753           0      1301.944580  -1646.575439  -10620.00390     44.984436
    9754           0      1301.944580  -1646.575439  -10980.00390     46.063091
    9755           0      1301.944580  -1646.575439  -11340.00390     47.917023
    9756           0      1301.944580  -1646.575439  -11700.00390     50.517937
    9757           0      1301.944580  -1646.575439  -12060.00390     53.528042
    9758           0      1301.944580  -1646.575439  -12420.00390     56.897472
    9759           0      1301.944580  -1646.575439  -12780.00390     60.327477
    9760           0      1301.944580  -1646.575439  -13140.00390     64.252831
    9761           0      1301.944580  -1646.575439  -13500.00390     68.365440
    9762           0      1301.944580  -1646.575439  -13860.00390     73.371437
    9763           0      1301.944580  -1646.575439  -14220.00293     73.552971
    9764           0      1395.481689  -1568.088257   -180.003326     20.112906
    9765           0      1395.481689  -1568.088257   -540.003357     19.736074
    9766           0      1395.481689  -1568.088257   -900.003418     17.878624
    9767           0      1395.481689  -1568.088257  -1260.003418     17.068094
    9768           0      1395.481689  -1568.088257  -1620.003418     16.330887
    9769           0      1395.481689  -1568.088257  -1980.003540     16.521120
    9770           0      1395.481689  -1568.088257  -2340.003906     18.359694
    9771           0      1395.481689  -1568.088257  -2700.003906     21.904345
    9772           0      1395.481689  -1568.088257  -3060.003418     26.136116
    9773           0      1395.481689  -1568.088257  -3420.003418     30.360855
    9774           0      1395.481689  -1568.088257  -3780.003418     34.229290
    9775           0      1395.481689  -1568.088257  -4140.003906     37.606949
    9776           0      1395.481689  -1568.088257  -4500.003906     40.455410
    9777           0      1395.481689  -1568.088257  -4860.003906     42.784996
    9778           0      1395.481689  -1568.088257  -5220.003906     44.611801
    9779           0      1395.481689  -1568.088257  -5580.003906     45.969055
    9780           0      1395.481689  -1568.088257  -5940.003906     46.880306
    9781           0      1395.481689  -1568.088257  -6300.003906     47.380276
    9782           0      1395.481689  -1568.088257  -6660.003906     47.497334
    9783           0      1395.481689  -1568.088257  -7020.003906     47.270851
    9784           0      1395.481689  -1568.088257  -7380.003906     46.741543
    9785           0      1395.481689  -1568.088257  -7740.003906     45.964279
    9786           0      1395.481689  -1568.088257  -8100.003906     45.004681
    9787           0      1395.481689  -1568.088257  -8460.003906     43.949257
    9788           0      1395.481689  -1568.088257  -8820.003906     42.905518
    9789           0      1395.481689  -1568.088257  -9180.003906     42.009491
    9790           0      1395.481689  -1568.088257  -9540.003906     41.421329
    9791           0      1395.481689  -1568.088257  -9900.003906     41.322025
    9792           0      1395.481689  -1568.088257  -10260.00390     41.891754
    9793           0      1395.481689  -1568.088257  -10620.00390     43.277630
    9794           0      1395.481689  -1568.088257  -10980.00390     45.582722
    9795           0      1395.481689  -1568.088257  -11340.00390     48.773441
    9796           0      1395.481689  -1568.088257  -11700.00390     52.807514
    9797           0      1395.481689  -1568.088257  -12060.00390     57.322945
    9798           0      1395.481689  -1568.088257  -12420.00390     62.102974
    9799           0      1395.481689  -1568.088257  -12780.00390     66.711349
    9800           0      1395.481689  -1568.088257  -13140.00390     71.380859
    9801           0      1395.481689  -1568.088257  -13500.00390     76.476494
    9802           0      1395.481689  -1568.088257  -13860.00390     82.343979
    9803           0      1395.481689  -1568.088257  -14220.00293     83.258057
    9804           0      1484.296875  -1484.295166   -180.003326     34.550632
    9805           0      1484.296875  -1484.295166   -540.003357     33.512909
    9806           0      1484.296875  -1484.295166   -900.003418     30.524822
    9807           0      1484.296875  -1484.295166  -1260.003418     28.038298
    9808           0      1484.296875  -1484.295166  -1620.003418     25.227327
    9809           0      1484.296875  -1484.295166  -1980.003418     22.825838
    9810           0      1484.296875  -1484.295166  -2340.003418     21.937384
    9811           0      1484.296875  -1484.295166  -2700.003418     22.910442
    9812           0      1484.296875  -1484.295166  -3060.003418     25.071293
    9813           0      1484.296875  -1484.295166  -3420.003418     27.771852
    9814           0      1484.296875  -1484.295166  -3780.003662     30.585283
    9815           0      1484.296875  -1484.295166  -4140.003418     33.280205
    9816           0      1484.296875  -1484.295166  -4500.003906     35.728149
    9817           0      1484.296875  -1484.295166  -4860.003906     37.862751
    9818           0      1484.296875  -1484.295166  -5220.003906     39.630932
    9819           0      1484.296875  -1484.295166  -5580.003418     41.012562
    9820           0      1484.296875  -1484.295166  -5940.003418     41.983063
    9821           0      1484.296875  -1484.295166  -6300.003906     42.540752
    9822           0      1484.296875  -1484.295166  -6660.003906     42.685276
    9823           0      1484.296875  -1484.295166  -7020.003906     42.432110
    9824           0      1484.296875  -1484.295166  -7380.003418     41.812397
    9825           0      1484.296875  -1484.295166  -7740.003906     40.870903
    9826           0      1484.296875  -1484.295166  -8100.003906     39.688263
    9827           0      1484.296875  -1484.295166  -8460.003906     38.366302
    9828           0      1484.296875  -1484.295166  -8820.003906     37.067871
    9829           0      1484.296875  -1484.295166  -9180.003906     35.993389
    9830           0      1484.296875  -1484.295166  -9540.002930     35.412342
    9831           0      1484.296875  -1484.295166  -9900.003906     35.610828
    9832           0      1484.296875  -1484.295166  -10260.00390     36.862251
    9833           0      1484.296875  -1484.295166  -10620.00390     39.333244
    9834           0      1484.296875  -1484.295166  -10980.00390     43.079941
    9835           0      1484.296875  -1484.295166  -11340.00390     47.973122
    9836           0      1484.296875  -1484.295166  -11700.00390     53.883492
    9837           0      1484.296875  -1484.295166  -12060.00390     60.439377
    9838           0      1484.296875  -1484.295166  -12420.00390     67.288620
    9839           0      1484.296875  -1484.295166  -12780.00390     73.836502
    9840           0      1484.296875  -1484.295166  -13140.00390     79.687668
    9841           0      1484.296875  -1484.295166  -13500.00390     85.940147
    9842           0      1484.296875  -1484.295166  -13860.00390     92.674355
    9843           0      1484.296875  -1484.295166  -14220.00293     94.415886
    9844           0      1568.089844  -1395.479858   -180.003326     50.557915
    9845           0      1568.089844  -1395.479858   -540.003357     49.104942
    9846           0      1568.089844  -1395.479858   -900.003418     45.007877
    9847           0      1568.089844  -1395.479858  -1260.003418     40.213886
    9848           0      1568.089844  -1395.479858  -1620.003418     34.473499
    9849           0      1568.089844  -1395.479858  -1980.003540     28.439100
    9850           0      1568.089844  -1395.479858  -2340.003662     23.486952
    9851           0      1568.089844  -1395.479858  -2700.003662     20.632240
    9852           0      1568.089844  -1395.479858  -3060.003418     20.227812
    9853           0      1568.089844  -1395.479858  -3420.003906     21.968773
    9854           0      1568.089844  -1395.479858  -3780.003906     24.997763
    9855           0      1568.089844  -1395.479858  -4140.003906     28.529381
    9856           0      1568.089844  -1395.479858  -4500.003906     32.091034
    9857           0      1568.089844  -1395.479858  -4860.003906     35.401161
    9858           0      1568.089844  -1395.479858  -5220.003906     38.305717
    9859           0      1568.089844  -1395.479858  -5580.003906     40.717041
    9860           0      1568.089844  -1395.479858  -5940.003418     42.575771
    9861           0      1568.089844  -1395.479858  -6300.003906     43.862671
    9862           0      1568.089844  -1395.479858  -6660.003906     44.550957
    9863           0      1568.089844  -1395.479858  -7020.003906     44.659279
    9864           0      1568.089844  -1395.479858  -7380.003906     44.181149
    9865           0      1568.089844  -1395.479858  -7740.003906     43.174244
    9866           0      1568.089844  -1395.479858  -8100.003418     41.665668
    9867           0      1568.089844  -1395.479858  -8460.003906     39.779446
    9868           0      1568.089844  -1395.479858  -8820.003906     37.626678
    9869           0      1568.089844  -1395.479858  -9180.003906     35.473515
    9870           0      1568.089844  -1395.479858  -9540.003906     33.629810
    9871           0      1568.089844  -1395.479858  -9900.003906     32.608315
    9872           0      1568.089844  -1395.479858  -10260.00390     32.943111
    9873           0      1568.089844  -1395.479858  -10620.00390     35.096939
    9874           0      1568.089844  -1395.479858  -10980.00390     39.270908
    9875           0      1568.089844  -1395.479858  -11340.00390     45.264278
    9876           0      1568.089844  -1395.479858  -11700.00390     52.863071
    9877           0      1568.089844  -1395.479858  -12060.00390     61.549030
    9878           0      1568.089844  -1395.479858  -12420.00390     70.949295
    9879           0      1568.089844  -1395.479858  -12780.00390     80.301758
    9880           0      1568.089844  -1395.479858  -13140.00390     88.235710
    9881           0      1568.089844  -1395.479858  -13500.00390     96.084160
    9882           0      1568.089844  -1395.479858  -13860.00390    103.661133
    9883           0      1568.089844  -1395.479858  -14220.00293    106.262344
    9884           0      1646.576782  -1301.942627   -180.003326     66.955505
    9885           0      1646.576782  -1301.942627   -540.003357     65.238846
    9886           0      1646.576782  -1301.942627   -900.003418     59.502285
    9887           0      1646.576782  -1301.942627  -1260.003418     51.053394
    9888           0      1646.576782  -1301.942627  -1620.003418     40.903404
    9889           0      1646.576782  -1301.942627  -1980.003540     30.203936
    9890           0      1646.576782  -1301.942627  -2340.003906     20.695683
    9891           0      1646.576782  -1301.942627  -2700.003906     14.492505
    9892           0      1646.576782  -1301.942627  -3060.003418     14.392451
    9893           0      1646.576782  -1301.942627  -3420.003418     19.357031
    9894           0      1646.576782  -1301.942627  -3780.003418     25.814627
    9895           0      1646.576782  -1301.942627  -4140.003906     32.202271
    9896           0      1646.576782  -1301.942627  -4500.003906     38.078823
    9897           0      1646.576782  -1301.942627  -4860.003906     43.255531
    9898           0      1646.576782  -1301.942627  -5220.003906     47.689945
    9899           0      1646.576782  -1301.942627  -5580.003906     51.336605
    9900           0      1646.576782  -1301.942627  -5940.003906     54.219757
    9901           0      1646.576782  -1301.942627  -6300.003906     56.306442
    9902           0      1646.576782  -1301.942627  -6660.003906     57.650143
    9903           0      1646.576782  -1301.942627  -7020.003906     58.210335
    9904           0      1646.576782  -1301.942627  -7380.003906     58.062252
    9905           0      1646.576782  -1301.942627  -7740.003906     57.162815
    9906           0      1646.576782  -1301.942627  -8100.003906     55.612652
    9907           0      1646.576782  -1301.942627  -8460.003906     53.389103
    9908           0      1646.576782  -1301.942627  -8820.003906     50.643005
    9909           0      1646.576782  -1301.942627  -9180.003906     47.432953
    9910           0      1646.576782  -1301.942627  -9540.003906     44.045296
    9911           0      1646.576782  -1301.942627  -9900.003906     40.779495
    9912           0      1646.576782  -1301.942627  -10260.00390     38.276112
    9913           0      1646.576782  -1301.942627  -10620.00390     37.290569
    9914           0      1646.576782  -1301.942627  -10980.00390     38.757809
    9915           0      1646.576782  -1301.942627  -11340.00390     43.112423
    9916           0      1646.576782  -1301.942627  -11700.00390     50.409271
    9917           0      1646.576782  -1301.942627  -12060.00390     60.050022
    9918           0      1646.576782  -1301.942627  -12420.00390     71.508469
    9919           0      1646.576782  -1301.942627  -12780.00390     84.141159
    9920           0      1646.576782  -1301.942627  -13140.00390     95.372734
    9921           0      1646.576782  -1301.942627  -13500.00390    105.902557
    9922           0      1646.576782  -1301.942627  -13860.00390    114.415451
    9923           0      1646.576782  -1301.942627  -14220.00293    117.896065
    9924           0      1719.492432  -1204.000000   -180.003326     82.838936
    9925           0      1719.492432  -1204.000000   -540.003357     80.570793
    9926           0      1719.492432  -1204.000000   -900.003418     71.577324
    9927           0      1719.492432  -1204.000000  -1260.003418     57.227230
    9928           0      1719.492432  -1204.000000  -1620.003418     41.363003
    9929           0      1719.492432  -1204.000000  -1980.003418     27.106632
    9930           0      1719.492432  -1204.000000  -2340.003418     17.065186
    9931           0      1719.492432  -1204.000000  -2700.003418     16.569511
    9932           0      1719.492432  -1204.000000  -3060.003418     23.775930
    9933           0      1719.492432  -1204.000000  -3420.003418     32.559803
    9934           0      1719.492432  -1204.000000  -3780.003662     41.133537
    9935           0      1719.492432  -1204.000000  -4140.003418     48.839260
    9936           0      1719.492432  -1204.000000  -4500.003906     55.663147
    9937           0      1719.492432  -1204.000000  -4860.003906     61.561890
    9938           0      1719.492432  -1204.000000  -5220.003906     66.523941
    9939           0      1719.492432  -1204.000000  -5580.003418     70.650696
    9940           0      1719.492432  -1204.000000  -5940.003418     73.867691
    9941           0      1719.492432  -1203.999878  -6300.003906     76.326004
    9942           0      1719.492432  -1203.999878  -6660.003906     77.913849
    9943           0      1719.492432  -1203.999878  -7020.003906     78.793091
    9944           0      1719.492432  -1203.999878  -7380.003418     78.837593
    9945           0      1719.492432  -1203.999878  -7740.003906     78.205170
    9946           0      1719.492432  -1203.999878  -8100.003906     76.771347
    9947           0      1719.492432  -1203.999878  -8460.003906     74.693817
    9948           0      1719.492432  -1203.999878  -8820.003906     71.866791
    9949           0      1719.492432  -1203.999878  -9180.003906     68.476418
    9950           0      1719.492432  -1203.999878  -9540.002930     64.476646
    9951           0      1719.492432  -1203.999878  -9900.003906     60.162102
    9952           0      1719.492432  -1203.999878  -10260.00390     55.683567
    9953           0      1719.492432  -1203.999878  -10620.00390     51.649025
    9954           0      1719.492432  -1203.999878  -10980.00390     48.776447
    9955           0      1719.492432  -1203.999878  -11340.00390     48.195999
    9956           0      1719.492432  -1203.999878  -11700.00390     51.152969
    9957           0      1719.492432  -1203.999878  -12060.00390     58.074226
    9958           0      1719.492432  -1203.999878  -12420.00390     68.973289
    9959           0      1719.492432  -1203.999878  -12780.00390     83.377243
    9960           0      1719.492432  -1203.999878  -13140.00390     98.734978
    9961           0      1719.492432  -1203.999878  -13500.00390    113.627625
    9962           0      1719.492432  -1203.999878  -13860.00390    123.986359
    9963           0      1719.492432  -1203.999878  -14220.00293    128.196930
    9964           0      1786.589478  -1101.983398   -180.003326     97.521385
    9965           0      1786.589478  -1101.983398   -540.003357     92.957764
    9966           0      1786.589478  -1101.983398   -900.003418     77.277237
    9967           0      1786.589478  -1101.983398  -1260.003418     54.915771
    9968           0      1786.589478  -1101.983398  -1620.003418     37.045490
    9969           0      1786.589478  -1101.983398  -1980.003540     28.442394
    9970           0      1786.589478  -1101.983398  -2340.003662     30.182070
    9971           0      1786.589478  -1101.983398  -2700.003662     38.133224
    9972           0      1786.589478  -1101.983398  -3060.003418     47.626221
    9973           0      1786.589478  -1101.983398  -3420.003906     56.541134
    9974           0      1786.589478  -1101.983398  -3780.003906     64.922058
    9975           0      1786.589478  -1101.983398  -4140.003906     72.034645
    9976           0      1786.589478  -1101.983398  -4500.003906     78.502701
    9977           0      1786.589478  -1101.983398  -4860.003906     83.765755
    9978           0      1786.589478  -1101.983398  -5220.003906     88.443924
    9979           0      1786.589478  -1101.983398  -5580.003906     92.061333
    9980           0      1786.589478  -1101.983398  -5940.003418     95.144043
    9981           0      1786.589478  -1101.983398  -6300.003906     97.298248
    9982           0      1786.589478  -1101.983398  -6660.003906     98.937325
    9983           0      1786.589478  -1101.983398  -7020.003906     99.752205
    9984           0      1786.589478  -1101.983398  -7380.003906    100.042061
    9985           0      1786.589478  -1101.983398  -7740.003906     99.583282
    9986           0      1786.589478  -1101.983398  -8100.003418     98.566856
    9987           0      1786.589600  -1101.983398  -8460.003906     96.854698
    9988           0      1786.589600  -1101.983398  -8820.003906     94.543190
    9989           0      1786.589600  -1101.983398  -9180.003906     91.583527
    9990           0      1786.589600  -1101.983398  -9540.003906     88.006248
    9991           0      1786.589600  -1101.983398  -9900.003906     83.870270
    9992           0      1786.589600  -1101.983398  -10260.00390     79.214272
    9993           0      1786.589600  -1101.983398  -10620.00390     74.274704
    9994           0      1786.589600  -1101.983398  -10980.00390     69.313461
    9995           0      1786.589600  -1101.983398  -11340.00390     64.986702
    9996           0      1786.589600  -1101.983398  -11700.00390     62.297153
    9997           0      1786.589600  -1101.983398  -12060.00390     62.750549
    9998           0      1786.589600  -1101.983398  -12420.00390     67.902092
    9999           0      1786.589600  -1101.983398  -12780.00390     79.078087
   10000           0      1786.589600  -1101.983398  -13140.00390     95.790649
   10001           0      1786.589600  -1101.983398  -13500.00390    116.528603
   10002           0      1786.589600  -1101.983398  -13860.00390    131.025299
   10003           0      1786.589478  -1101.983398  -14220.00293    136.125443
   10004           0      1847.641602   -996.238037   -180.003326    110.301346
   10005           0      1847.641602   -996.238037   -540.003357     98.385094
   10006           0      1847.641602   -996.238037   -900.003418     71.600464
   10007           0      1847.641602   -996.238037  -1260.003418     49.020401
   10008           0      1847.641602   -996.238037  -1620.003418     45.370075
   10009           0      1847.641602   -996.238037  -1980.003540     50.488194
   10010           0      1847.641602   -996.238037  -2340.003906     59.127457
   10011           0      1847.641602   -996.238037  -2700.003906     68.118073
   10012           0      1847.641602   -996.238037  -3060.003418     76.188286
   10013           0      1847.641602   -996.238037  -3420.003418     83.607788
   10014           0      1847.641602   -996.238037  -3780.003418     89.733749
   10015           0      1847.641602   -996.238037  -4140.003906     95.337814
   10016           0      1847.641602   -996.238037  -4500.003906     99.769913
   10017           0      1847.641602   -996.238037  -4860.003906    103.836525
   10018           0      1847.641602   -996.238037  -5220.003906    106.917953
   10019           0      1847.641602   -996.238037  -5580.003906    109.719948
   10020           0      1847.641602   -996.238037  -5940.003906    111.713966
   10021           0      1847.641602   -996.238037  -6300.003906    113.454224
   10022           0      1847.641602   -996.238037  -6660.003906    114.533005
   10023           0      1847.641602   -996.238037  -7020.003906    115.340210
   10024           0      1847.641602   -996.238037  -7380.003906    115.594574
   10025           0      1847.641602   -996.238037  -7740.003906    115.528419
   10026           0      1847.641602   -996.238037  -8100.003906    114.978210
   10027           0      1847.641602   -996.238037  -8460.003906    114.036430
   10028           0      1847.641602   -996.238037  -8820.003906    112.639893
   10029           0      1847.641602   -996.238037  -9180.003906    110.769005
   10030           0      1847.641602   -996.238037  -9540.003906    108.437393
   10031           0      1847.641602   -996.238037  -9900.003906    105.557404
   10032           0      1847.641602   -996.238037  -10260.00390    102.192902
   10033           0      1847.641602   -996.238037  -10620.00390     98.270897
   10034           0      1847.641602   -996.238037  -10980.00390     93.889854
   10035           0      1847.641602   -996.238037  -11340.00390     89.189606
   10036           0      1847.641602   -996.238037  -11700.00390     84.374969
   10037           0      1847.641602   -996.238037  -12060.00390     80.385567
   10038           0      1847.641602   -996.238037  -12420.00390     78.006226
   10039           0      1847.641602   -996.238037  -12780.00390     80.413635
   10040           0      1847.641602   -996.238037  -13140.00390     89.145439
   10041           0      1847.641602   -996.238037  -13500.00390    111.246597
   10042           0      1847.641602   -996.238037  -13860.00390    133.526749
   10043           0      1847.641602   -996.238037  -14220.00293    140.535782
   10044           0      1902.441772   -887.121765   -180.003326    119.864334
   10045           0      1902.441772   -887.121765   -540.003357     91.263809
   10046           0      1902.441772   -887.121765   -900.003418     66.889603
   10047           0      1902.441772   -887.121765  -1260.003418     71.157089
   10048           0      1902.441772   -887.121765  -1620.003418     79.328758
   10049           0      1902.441772   -887.121765  -1980.003418     87.280212
   10050           0      1902.441772   -887.121765  -2340.003418     94.017227
   10051           0      1902.441772   -887.121765  -2700.003418     99.149170
   10052           0      1902.441772   -887.121765  -3060.003418    103.736153
   10053           0      1902.441772   -887.121765  -3420.003418    106.883972
   10054           0      1902.441772   -887.121765  -3780.003662    109.954460
   10055           0      1902.441772   -887.121765  -4140.003418    111.874825
   10056           0      1902.441772   -887.121765  -4500.003906    113.908409
   10057           0      1902.441772   -887.121765  -4860.003906    115.086403
   10058           0      1902.441772   -887.121765  -5220.003906    116.427589
   10059           0      1902.441772   -887.121765  -5580.003418    117.171043
   10060           0      1902.441772   -887.121765  -5940.003418    118.060402
   10061           0      1902.441772   -887.121765  -6300.003906    118.557648
   10062           0      1902.441772   -887.121765  -6660.003906    119.149078
   10063           0      1902.441772   -887.121704  -7020.003906    119.500984
   10064           0      1902.441772   -887.121704  -7380.003418    119.873833
   10065           0      1902.441772   -887.121704  -7740.003906    120.111366
   10066           0      1902.441772   -887.121704  -8100.003906    120.278122
   10067           0      1902.441772   -887.121704  -8460.003906    120.369789
   10068           0      1902.441772   -887.121704  -8820.003906    120.278854
   10069           0      1902.441772   -887.121704  -9180.003906    120.130692
   10070           0      1902.441772   -887.121704  -9540.002930    119.664787
   10071           0      1902.441772   -887.121704  -9900.003906    119.117180
   10072           0      1902.441772   -887.121704  -10260.00390    118.090012
   10073           0      1902.441772   -887.121704  -10620.00390    116.919525
   10074           0      1902.441772   -887.121704  -10980.00390    115.073570
   10075           0      1902.441772   -887.121704  -11340.00390    113.023636
   10076           0      1902.441772   -887.121704  -11700.00390    110.044716
   10077           0      1902.441772   -887.121704  -12060.00390    106.997787
   10078           0      1902.441772   -887.121704  -12420.00390    102.718803
   10079           0      1902.441772   -887.121704  -12780.00390     99.820282
   10080           0      1902.441772   -887.121704  -13140.00390     96.405968
   10081           0      1902.441772   -887.121704  -13500.00390    103.733459
   10082           0      1902.441772   -887.121704  -13860.00390    127.472641
   10083           0      1902.441772   -887.121765  -14220.00293    140.674622
   10084           0      1950.804565   -775.003784   -180.003326    122.444832
   10085           0      1950.804565   -775.003784   -540.003357    104.338821
   10086           0      1950.804565   -775.003784   -900.003418    118.696671
   10087           0      1950.804565   -775.003784  -1260.003418    124.306313
   10088           0      1950.804688   -775.003784  -1620.003418    127.120155
   10089           0      1950.804688   -775.003784  -1980.003540    127.248329
   10090           0      1950.804688   -775.003784  -2340.003662    126.165039
   10091           0      1950.804688   -775.003784  -2700.003662    124.653595
   10092           0      1950.804688   -775.003784  -3060.003418    122.450020
   10093           0      1950.804688   -775.003784  -3420.003906    120.358315
   10094           0      1950.804688   -775.003784  -3780.003906    117.963478
   10095           0      1950.804688   -775.003784  -4140.003906    115.802483
   10096           0      1950.804688   -775.003784  -4500.003906    113.645775
   10097           0      1950.804688   -775.003784  -4860.003906    111.751984
   10098           0      1950.804688   -775.003784  -5220.003906    110.079414
   10099           0      1950.804688   -775.003784  -5580.003906    108.678337
   10100           0      1950.804688   -775.003784  -5940.003418    107.634186
   10101           0      1950.804688   -775.003784  -6300.003906    106.861992
   10102           0      1950.804688   -775.003784  -6660.003906    106.520096
   10103           0      1950.804688   -775.003784  -7020.003906    106.440880
   10104           0      1950.804688   -775.003784  -7380.003906    106.822639
   10105           0      1950.804688   -775.003784  -7740.003906    107.441444
   10106           0      1950.804688   -775.003784  -8100.003418    108.525955
   10107           0      1950.804688   -775.003784  -8460.003906    109.794800
   10108           0      1950.804688   -775.003784  -8820.003906    111.521118
   10109           0      1950.804688   -775.003784  -9180.003906    113.336685
   10110           0      1950.804688   -775.003784  -9540.003906    115.598610
   10111           0      1950.804688   -775.003784  -9900.003906    117.793716
   10112           0      1950.804688   -775.003784  -10260.00390    120.428413
   10113           0      1950.804688   -775.003784  -10620.00390    122.762703
   10114           0      1950.804688   -775.003784  -10980.00390    125.529861
   10115           0      1950.804688   -775.003784  -11340.00390    127.686508
   10116           0      1950.804688   -775.003784  -11700.00390    130.201859
   10117           0      1950.804688   -775.003784  -12060.00390    131.779343
   10118           0      1950.804688   -775.003784  -12420.00390    133.219971
   10119           0      1950.804688   -775.003784  -12780.00390    133.632355
   10120           0      1950.804688   -775.003784  -13140.00390    131.642883
   10121           0      1950.804688   -775.003784  -13500.00390    129.593430
   10122           0      1950.804688   -775.003784  -13860.00390    124.272896
   10123           0      1950.804688   -775.003784  -14220.00293    134.579239
   10124           0      1992.908203   -659.120605   -180.003326    148.281235
   10125           0      1992.908203   -659.120605   -540.003357    239.043381
   10126           0      1992.908203   -659.120605   -900.003418    198.803940
   10127           0      1992.908203   -659.120605  -1260.003418    190.295914
   10128           0      1992.908203   -659.120605  -1620.003418    172.351913
   10129           0      1992.908203   -659.120605  -1980.003540    160.013092
   10130           0      1992.908203   -659.120605  -2340.003906    146.326126
   10131           0      1992.908203   -659.120605  -2700.003906    135.890015
   10132           0      1992.908203   -659.120605  -3060.003418    124.490479
   10133           0      1992.908203   -659.120605  -3420.003906    115.846985
   10134           0      1992.908203   -659.120605  -3780.003906    106.382240
   10135           0      1992.908203   -659.120605  -4140.003906     99.376999
   10136           0      1992.908203   -659.120605  -4500.003906     91.803146
   10137           0      1992.908203   -659.120605  -4860.003906     86.449966
   10138           0      1992.908203   -659.120605  -5220.003906     80.811165
   10139           0      1992.908203   -659.120605  -5580.003906     77.171783
   10140           0      1992.908203   -659.120605  -5940.003906     73.514481
   10141           0      1992.908203   -659.120605  -6300.003906     71.621124
   10142           0      1992.908203   -659.120605  -6660.003906     69.943153
   10143           0      1992.908203   -659.120605  -7020.003906     69.763290
   10144           0      1992.908203   -659.120605  -7380.003906     69.991592
   10145           0      1992.908203   -659.120605  -7740.003906     71.434280
   10146           0      1992.908203   -659.120605  -8100.003418     73.442024
   10147           0      1992.908203   -659.120605  -8460.003906     76.397011
   10148           0      1992.908203   -659.120605  -8820.003906     80.040062
   10149           0      1992.908203   -659.120605  -9180.003906     84.417030
   10150           0      1992.908203   -659.120605  -9540.003906     89.548813
   10151           0      1992.908203   -659.120605  -9900.003906     95.301689
   10152           0      1992.908203   -659.120605  -10260.00390    101.750076
   10153           0      1992.908203   -659.120605  -10620.00390    108.923042
   10154           0      1992.908203   -659.120605  -10980.00390    116.439346
   10155           0      1992.908203   -659.120605  -11340.00390    125.320351
   10156           0      1992.908203   -659.120605  -11700.00390    133.498764
   10157           0      1992.908203   -659.120605  -12060.00390    144.978027
   10158           0      1992.908203   -659.120605  -12420.00390    153.145752
   10159           0      1992.908203   -659.120605  -12780.00390    168.913422
   10160           0      1992.908203   -659.120605  -13140.00390    177.078140
   10161           0      1992.908203   -659.120605  -13500.00390    193.430313
   10162           0      1992.908203   -659.120605  -13860.00390    220.728165
   10163           0      1992.908203   -659.120605  -14220.00293    135.498199
   10164           0      2028.065308   -541.565613  -14578.05175    158.834579
   10165           0      2028.065308   -541.565613  -14934.14843    239.963058
   10166           0      2028.065308   -541.565613  -15290.24609    210.539795
   10167           0      2028.065308   -541.565613  -15646.34277    189.762314
   10168           0      2028.065308   -541.565613  -16002.44140    180.676498
   10169           0      2028.065308   -541.565613  -16358.53808    160.564392
   10170           0      2028.065308   -541.565613  -16714.63671    150.933441
   10171           0      2028.065308   -541.565613  -17070.73437    135.687653
   10172           0      2028.065308   -541.565613  -17426.83203    125.785133
   10173           0      2028.065308   -541.565613  -17782.92968    113.742538
   10174           0      2028.065308   -541.565613  -18139.02539    104.511917
   10175           0      2028.065308   -541.565613  -18495.12304     94.734650
   10176           0      2028.065308   -541.565613  -18851.22070     86.681404
   10177           0      2028.065308   -541.565613  -19207.31835     78.766083
   10178           0      2028.065308   -541.565613  -19563.41796     72.075104
   10179           0      2028.065308   -541.565613  -19919.51562     65.771820
   10180           0      2028.065308   -541.565613  -20275.61132     60.396370
   10181           0      2028.065308   -541.565613  -20631.70898     55.442188
   10182           0      2028.065308   -541.565613  -20987.80664     51.187012
   10183           0      2028.065308   -541.565613  -21343.90429     47.307846
   10184           0      2028.065308   -541.565613  -21700.00195     43.968235
   10185           0      2028.065308   -541.565613  -22056.09765     41.016941
   10186           0      2028.065308   -541.565613  -22412.19726     38.600021
   10187           0      2028.065308   -541.565613  -22768.29492     36.793999
   10188           0      2028.065308   -541.565613  -23124.39062     35.773239
   10189           0      2028.065308   -541.565613  -23480.48828     35.859581
   10190           0      2028.065308   -541.565613  -23836.58789     37.143593
   10191           0      2028.065308   -541.565613  -24192.68554     39.986839
   10192           0      2028.065308   -541.565613  -24548.78125     44.208160
   10193           0      2028.065308   -541.565613  -24904.87890     49.970669
   10194           0      2028.065308   -541.565613  -25260.97656     57.088993
   10195           0      2028.065308   -541.565613  -25617.07226     65.334366
   10196           0      2028.065308   -541.565613  -25973.17187     75.272377
   10197           0      2028.065308   -541.565613  -26329.26953     85.483009
   10198           0      2028.065308   -541.565613  -26685.36914     98.796188
   10199           0      2028.065308   -541.565613  -27041.46484    110.469810
   10200           0      2028.065308   -541.565613  -27397.56250    128.458572
   10201           0      2028.065308   -541.565613  -27753.66015    142.074997
   10202           0      2028.065308   -541.565613  -28109.75781    160.228638
   10203           0      2028.065308   -541.565613  -28465.85351    195.673340
   10204           0      2028.065308   -541.565674  -28821.95312    107.678116
   10205           0      2055.883057   -423.895691  -14578.05175    167.628311
   10206           0      2055.883057   -423.895660  -14934.14843    155.334869
   10207           0      2055.883057   -423.895660  -15290.24609    156.935272
   10208           0      2055.883057   -423.895660  -15646.34277    152.468155
   10209           0      2055.883057   -423.895660  -16002.44140    152.966019
   10210           0      2055.883057   -423.895660  -16358.53808    147.690979
   10211           0      2055.883057   -423.895660  -16714.63671    144.435562
   10212           0      2055.883057   -423.895660  -17070.73437    139.106522
   10213           0      2055.883057   -423.895660  -17426.83203    134.513397
   10214           0      2055.883057   -423.895660  -17782.92968    129.269058
   10215           0      2055.883057   -423.895660  -18139.02539    124.361954
   10216           0      2055.883057   -423.895660  -18495.12304    119.375877
   10217           0      2055.883057   -423.895660  -18851.22070    114.654755
   10218           0      2055.883057   -423.895660  -19207.31835    110.118477
   10219           0      2055.883057   -423.895660  -19563.41796    105.882301
   10220           0      2055.883057   -423.895660  -19919.51562    101.964981
   10221           0      2055.883057   -423.895660  -20275.61328     98.408363
   10222           0      2055.883057   -423.895660  -20631.71093     95.242378
   10223           0      2055.883057   -423.895660  -20987.80859     92.495308
   10224           0      2055.883057   -423.895660  -21343.90429     90.179268
   10225           0      2055.883057   -423.895660  -21700.00000     88.329025
   10226           0      2055.883057   -423.895660  -22056.09765     86.933434
   10227           0      2055.883057   -423.895660  -22412.19726     86.032227
   10228           0      2055.883057   -423.895660  -22768.29296     85.597084
   10229           0      2055.883057   -423.895660  -23124.39062     85.654259
   10230           0      2055.883057   -423.895660  -23480.48828     86.175186
   10231           0      2055.883057   -423.895660  -23836.58789     87.135597
   10232           0      2055.883057   -423.895660  -24192.68359     88.542809
   10233           0      2055.883057   -423.895660  -24548.78125     90.258469
   10234           0      2055.883057   -423.895660  -24904.87890     92.396645
   10235           0      2055.883057   -423.895660  -25260.97656     94.597313
   10236           0      2055.883057   -423.895660  -25617.07226     97.207817
   10237           0      2055.883057   -423.895660  -25973.17187     99.462326
   10238           0      2055.883057   -423.895660  -26329.26953    102.126640
   10239           0      2055.883057   -423.895660  -26685.36914    103.734917
   10240           0      2055.883057   -423.895660  -27041.46484    105.543961
   10241           0      2055.883057   -423.895660  -27397.56250    105.134293
   10242           0      2055.883057   -423.895660  -27753.66015    102.942329
   10243           0      2055.883057   -423.895660  -28109.75781     97.278542
   10244           0      2055.883057   -423.895660  -28465.85351     80.802521
   10245           0      2055.883057   -423.895691  -28821.95312     92.892059
   10246           0      2076.948730   -304.226929  -14578.05175    175.953278
   10247           0      2076.948730   -304.226929  -14934.14843    165.505051
   10248           0      2076.948730   -304.226929  -15290.24609    142.250961
   10249           0      2076.948730   -304.226929  -15646.34277    129.956940
   10250           0      2076.948730   -304.226929  -16002.44043    129.001755
   10251           0      2076.948730   -304.226929  -16358.53808    127.295456
   10252           0      2076.948730   -304.226929  -16714.63671    127.647148
   10253           0      2076.948730   -304.226929  -17070.73437    127.348595
   10254           0      2076.948730   -304.226929  -17426.83203    127.289894
   10255           0      2076.948730   -304.226929  -17782.92968    126.831680
   10256           0      2076.948730   -304.226929  -18139.02539    126.306831
   10257           0      2076.948730   -304.226929  -18495.12304    125.519676
   10258           0      2076.948730   -304.226929  -18851.22070    124.670349
   10259           0      2076.948730   -304.226929  -19207.31835    123.653290
   10260           0      2076.948730   -304.226929  -19563.41796    122.638832
   10261           0      2076.948730   -304.226929  -19919.51562    121.532478
   10262           0      2076.948730   -304.226929  -20275.61132    120.489296
   10263           0      2076.948730   -304.226929  -20631.70898    119.411209
   10264           0      2076.948730   -304.226929  -20987.80664    118.435471
   10265           0      2076.948730   -304.226898  -21343.90429    117.457916
   10266           0      2076.948730   -304.226898  -21700.00195    116.596779
   10267           0      2076.948730   -304.226898  -22056.09765    115.738029
   10268           0      2076.948730   -304.226898  -22412.19531    114.983368
   10269           0      2076.948730   -304.226898  -22768.29296    114.201088
   10270           0      2076.948730   -304.226898  -23124.39062    113.480652
   10271           0      2076.948730   -304.226898  -23480.48828    112.661690
   10272           0      2076.948730   -304.226898  -23836.58789    111.824028
   10273           0      2076.948730   -304.226898  -24192.68359    110.767456
   10274           0      2076.948730   -304.226898  -24548.78125    109.557388
   10275           0      2076.948730   -304.226898  -24904.87890    107.947227
   10276           0      2076.948730   -304.226898  -25260.97656    105.965645
   10277           0      2076.948730   -304.226898  -25617.07421    103.322792
   10278           0      2076.948730   -304.226898  -25973.17187     99.954857
   10279           0      2076.948730   -304.226868  -26329.26953     95.536446
   10280           0      2076.948730   -304.226868  -26685.36914     89.823685
   10281           0      2076.948730   -304.226868  -27041.46484     82.454453
   10282           0      2076.948730   -304.226868  -27397.56054     73.235619
   10283           0      2076.948730   -304.226868  -27753.66015     62.613762
   10284           0      2076.948730   -304.226868  -28109.75781     57.251575
   10285           0      2076.948730   -304.226868  -28465.85351     77.360909
   10286           0      2076.948730   -304.226898  -28821.95117     99.948235
   10287           0      2091.124268   -182.948303  -14578.05175    178.355423
   10288           0      2091.124268   -182.948303  -14934.14843    173.527313
   10289           0      2091.124268   -182.948303  -15290.24609    153.515839
   10290           0      2091.124268   -182.948303  -15646.34277    129.996292
   10291           0      2091.124268   -182.948303  -16002.44043    118.938736
   10292           0      2091.124268   -182.948288  -16358.53808    112.389557
   10293           0      2091.124268   -182.948288  -16714.63671    110.258057
   10294           0      2091.124268   -182.948288  -17070.73242    109.950958
   10295           0      2091.124268   -182.948288  -17426.83007    111.119431
   10296           0      2091.124268   -182.948273  -17782.92773    112.732613
   10297           0      2091.124268   -182.948273  -18139.02539    114.677650
   10298           0      2091.124268   -182.948242  -18495.12500    116.573196
   10299           0      2091.124268   -182.948242  -18851.22070    118.366402
   10300           0      2091.124268   -182.948242  -19207.31835    119.962975
   10301           0      2091.124268   -182.948242  -19563.41601    121.299133
   10302           0      2091.124268   -182.948242  -19919.51367    122.413734
   10303           0      2091.124268   -182.948242  -20275.61132    123.217056
   10304           0      2091.124268   -182.948242  -20631.70898    123.806793
   10305           0      2091.124268   -182.948242  -20987.80664    124.068848
   10306           0      2091.124268   -182.948227  -21343.90429    124.121735
   10307           0      2091.124268   -182.948227  -21700.00195    123.830345
   10308           0      2091.124268   -182.948227  -22056.09960    123.314491
   10309           0      2091.124268   -182.948212  -22412.19726    122.418999
   10310           0      2091.124268   -182.948196  -22768.29492    121.254532
   10311           0      2091.124268   -182.948196  -23124.39062    119.644600
   10312           0      2091.124268   -182.948196  -23480.48828    117.682411
   10313           0      2091.124268   -182.948196  -23836.58984    115.169060
   10314           0      2091.124268   -182.948196  -24192.68554    112.168518
   10315           0      2091.124268   -182.948196  -24548.78125    108.461510
   10316           0      2091.124268   -182.948196  -24904.87890    104.062714
   10317           0      2091.124268   -182.948181  -25260.97656     98.741074
   10318           0      2091.124268   -182.948181  -25617.07421     92.434235
   10319           0      2091.124268   -182.948181  -25973.17187     84.925438
   10320           0      2091.124268   -182.948181  -26329.26953     76.086685
   10321           0      2091.124268   -182.948166  -26685.37109     65.891373
   10322           0      2091.124268   -182.948151  -27041.46484     54.677650
   10323           0      2091.124268   -182.948151  -27397.56054     44.874802
   10324           0      2091.124268   -182.948151  -27753.66406     42.409882
   10325           0      2091.124268   -182.948135  -28109.75781     60.888638
   10326           0      2091.124268   -182.948135  -28465.85156     84.884377
   10327           0      2091.124268   -182.948227  -28821.94921     96.567902
   10328           0      2098.223633    -61.051388  -14578.05078    176.648132
   10329           0      2098.223633    -61.051376  -14934.14843    172.572449
   10330           0      2098.223633    -61.051369  -15290.24609    159.597336
   10331           0      2098.223633    -61.051365  -15646.34277    138.281067
   10332           0      2098.223633    -61.051365  -16002.44140    120.957138
   10333           0      2098.223633    -61.051365  -16358.53808    108.169434
   10334           0      2098.223633    -61.051361  -16714.63671     99.953201
   10335           0      2098.223633    -61.051353  -17070.73242     95.700081
   10336           0      2098.223633    -61.051353  -17426.83007     94.127869
   10337           0      2098.223633    -61.051353  -17782.92773     94.741776
   10338           0      2098.223633    -61.051346  -18139.02539     96.501762
   10339           0      2098.223633    -61.051342  -18495.12500     99.028770
   10340           0      2098.223633    -61.051342  -18851.22265    101.823685
   10341           0      2098.223633    -61.051342  -19207.31835    104.635162
   10342           0      2098.223633    -61.051338  -19563.41796    107.303276
   10343           0      2098.223633    -61.051331  -19919.51367    109.649857
   10344           0      2098.223633    -61.051331  -20275.61132    111.676521
   10345           0      2098.223633    -61.051331  -20631.70898    113.233917
   10346           0      2098.223633    -61.051327  -20987.80664    114.393242
   10347           0      2098.223633    -61.051323  -21343.90429    115.009674
   10348           0      2098.223633    -61.051323  -21700.00195    115.180992
   10349           0      2098.223633    -61.051323  -22056.09765    114.754028
   10350           0      2098.223633    -61.051315  -22412.19726    113.833199
   10351           0      2098.223633    -61.051311  -22768.29296    112.248642
   10352           0      2098.223633    -61.051311  -23124.39062    110.102608
   10353           0      2098.223633    -61.051311  -23480.48828    107.200554
   10354           0      2098.223633    -61.051308  -23836.58789    103.640526
   10355           0      2098.223633    -61.051300  -24192.68359     99.193306
   10356           0      2098.223633    -61.051300  -24548.78125     93.957375
   10357           0      2098.223633    -61.051300  -24904.87890     87.657936
   10358           0      2098.223633    -61.051292  -25260.97656     80.411209
   10359           0      2098.223633    -61.051289  -25617.07617     71.908150
   10360           0      2098.223633    -61.051289  -25973.17382     62.354145
   10361           0      2098.223633    -61.051289  -26329.26953     51.636112
   10362           0      2098.223633    -61.051285  -26685.36914     40.658100
   10363           0      2098.223633    -61.051277  -27041.46484     31.941511
   10364           0      2098.223633    -61.051277  -27397.56054     32.240547
   10365           0      2098.223633    -61.051277  -27753.66210     45.259361
   10366           0      2098.223633    -61.051270  -28109.75781     67.068268
   10367           0      2098.223633    -61.051266  -28465.85351     81.712524
   10368           0      2098.223877    -61.051010  -28821.95117     88.484604
   13825           0      1844.756104   -600.000000  -29166.66601    374.137390
   13826           0      1844.756104   -600.000000  -29500.00000    117.076065
   13827           0      1844.756104   -600.000000  -29833.33203     56.311867
   13828           0      1844.756104   -600.000000  -30166.66601     54.961140
   13829           0      1844.756104   -600.000000  -30500.00000     37.302639
   13830           0      1844.756104   -600.000000  -30833.33593     31.610485
   13831           0      1844.756104   -600.000000  -31166.66601     25.562326
   13832           0      1844.756104   -600.000000  -31500.00000     20.021313
   13833           0      1844.756104   -600.000000  -31833.33203     20.737160
   13834           0      1844.756104   -600.000000  -32166.66796     21.241367
   13835           0      1844.756104   -600.000000  -32500.00195     27.093355
   13836           0      1844.756104   -600.000000  -32833.33593     36.937691
   13837           0      1844.756104   -600.000000  -33166.66796     50.504665
   13838           0      1844.756104   -600.000000  -33500.00000     90.578735
   13839           0      1844.756104   -600.000000  -33833.33593    372.122528
   13840           0      1509.345825   -600.000000  -29166.66601    130.495728
   13841           0      1509.345825   -600.000000  -29500.00000     69.462456
   13842           0      1509.345825   -600.000000  -29833.33203     54.041374
   13843           0      1509.345825   -600.000000  -30166.66601     52.861721
   13844           0      1509.345825   -600.000000  -30500.00000     64.881599
   13845           0      1509.345825   -600.000000  -30833.33593     68.886795
   13846           0      1509.345825   -600.000000  -31166.66796     69.698769
   13847           0      1509.345825   -600.000000  -31500.00000     71.414215
   13848           0      1509.345825   -600.000000  -31833.33203     70.136803
   13849           0      1509.345825   -600.000000  -32166.66796     69.698273
   13850           0      1509.345825   -600.000000  -32500.00195     66.685364
   13851           0      1509.345825   -600.000000  -32833.33593     59.399235
   13852           0      1509.345825   -600.000000  -33166.66796     55.177639
   13853           0      1509.345825   -600.000000  -33500.00000     51.409279
   13854           0      1509.345825   -600.000000  -33833.33593    124.538696
   13855           0      1173.935547   -600.000061  -29166.66601     84.502090
   13856           0      1173.935547   -600.000061  -29500.00000     96.335175
   13857           0      1173.935547   -600.000061  -29833.33203     59.084805
   13858           0      1173.935547   -600.000061  -30166.66601     87.204796
   13859           0      1173.935547   -600.000061  -30500.00000     97.244896
   13860           0      1173.935547   -600.000061  -30833.33593    104.874931
   13861           0      1173.935547   -600.000061  -31166.66796    109.402100
   13862           0      1173.935547   -600.000061  -31500.00000    110.600273
   13863           0      1173.935547   -600.000061  -31833.33203    111.123222
   13864           0      1173.935547   -600.000061  -32166.66796    108.928223
   13865           0      1173.935547   -600.000061  -32500.00195    104.436577
   13866           0      1173.935547   -600.000061  -32833.33593     97.840446
   13867           0      1173.935547   -600.000061  -33166.66796     77.475235
   13868           0      1173.935547   -600.000061  -33500.00000     87.458397
   13869           0      1173.935547   -600.000061  -33833.33593     87.985626
   13870           0       838.525208   -600.000061  -29166.66601    138.596878
   13871           0       838.525208   -600.000061  -29500.00000    120.919853
   13872           0       838.525208   -600.000061  -29833.33203    127.670128
   13873           0       838.525208   -600.000061  -30166.66601    119.638725
   13874           0       838.525208   -600.000061  -30500.00000    129.963425
   13875           0       838.525208   -600.000061  -30833.33593    135.107590
   13876           0       838.525208   -600.000061  -31166.66796    138.956299
   13877           0       838.525208   -600.000061  -31500.00000    141.182709
   13878           0       838.525208   -600.000061  -31833.33203    141.129822
   13879           0       838.525208   -600.000061  -32166.66796    139.671768
   13880           0       838.525208   -600.000061  -32500.00195    136.611435
   13881           0       838.525208   -600.000061  -32833.33593    129.969421
   13882           0       838.525208   -600.000061  -33166.66796    130.398956
   13883           0       838.525208   -600.000061  -33500.00000    129.898834
   13884           0       838.525208   -600.000061  -33833.33593    145.802567
   13885           0       503.114929   -600.000061  -29166.66601    165.240784
   13886           0       503.114929   -600.000061  -29500.00000    162.955948
   13887           0       503.114929   -600.000061  -29833.33203    152.394180
   13888           0       503.114929   -600.000061  -30166.66601    154.535675
   13889           0       503.114929   -600.000061  -30500.00000    153.068253
   13890           0       503.114929   -600.000061  -30833.33593    157.141388
   13891           0       503.114929   -600.000061  -31166.66796    159.734940
   13892           0       503.114929   -600.000061  -31500.00000    161.335175
   13893           0       503.114929   -600.000061  -31833.33203    161.789124
   13894           0       503.114929   -600.000061  -32166.66796    160.923965
   13895           0       503.114929   -600.000061  -32500.00195    158.809723
   13896           0       503.114929   -600.000061  -32833.33593    158.485352
   13897           0       503.114929   -600.000061  -33166.66796    158.539627
   13898           0       503.114929   -600.000061  -33500.00000    165.821304
   13899           0       503.114929   -600.000061  -33833.33593    179.948929
   13900           0       167.704681   -600.000122  -29166.66601    181.154770
   13901           0       167.704681   -600.000122  -29500.00000    175.579926
   13902           0       167.704681   -600.000122  -29833.33203    171.810989
   13903           0       167.704681   -600.000122  -30166.66601    167.245850
   13904           0       167.704681   -600.000122  -30500.00000    167.514236
   13905           0       167.704681   -600.000122  -30833.33593    168.367950
   13906           0       167.704681   -600.000122  -31166.66796    170.336258
   13907           0       167.704681   -600.000122  -31500.00000    171.725403
   13908           0       167.704681   -600.000122  -31833.33203    172.149597
   13909           0       167.704681   -600.000122  -32166.66796    171.724380
   13910           0       167.704681   -600.000122  -32500.00195    171.261444
   13911           0       167.704681   -600.000122  -32833.33593    171.339798
   13912           0       167.704681   -600.000122  -33166.66796    174.573181
   13913           0       167.704681   -600.000122  -33500.00000    181.975815
   13914           0       167.704681   -600.000122  -33833.33593    196.158127
   13915           0      -167.705566   -600.000122  -29166.66601    180.746445
   13916           0      -167.705566   -600.000122  -29500.00000    175.163406
   13917           0      -167.705566   -600.000122  -29833.33203    171.595551
   13918           0      -167.705566   -600.000122  -30166.66601    167.139923
   13919           0      -167.705566   -600.000122  -30500.00000    167.483780
   13920           0      -167.705566   -600.000122  -30833.33593    168.371490
   13921           0      -167.705566   -600.000122  -31166.66796    170.349228
   13922           0      -167.705566   -600.000122  -31500.00000    171.738586
   13923           0      -167.705566   -600.000122  -31833.33203    172.160278
   13924           0      -167.705566   -600.000122  -32166.66796    171.732361
   13925           0      -167.705566   -600.000122  -32500.00195    171.265137
   13926           0      -167.705566   -600.000122  -32833.33593    171.338654
   13927           0      -167.705566   -600.000122  -33166.66796    174.563736
   13928           0      -167.705566   -600.000122  -33500.00000    181.962128
   13929           0      -167.705566   -600.000122  -33833.33593    196.145004
   13930           0      -503.115967   -600.000122  -29166.66601    163.572571
   13931           0      -503.115967   -600.000122  -29500.00000    161.867767
   13932           0      -503.115967   -600.000122  -29833.33203    151.738281
   13933           0      -503.115967   -600.000122  -30166.66601    154.260742
   13934           0      -503.115967   -600.000122  -30500.00000    153.002213
   13935           0      -503.115967   -600.000122  -30833.33593    157.158096
   13936           0      -503.115967   -600.000122  -31166.66796    159.771271
   13937           0      -503.115967   -600.000122  -31500.00000    161.370377
   13938           0      -503.115967   -600.000122  -31833.33203    161.818405
   13939           0      -503.115967   -600.000122  -32166.66796    160.945755
   13940           0      -503.115967   -600.000122  -32500.00195    158.821442
   13941           0      -503.115967   -600.000122  -32833.33593    158.480225
   13942           0      -503.115967   -600.000122  -33166.66796    158.513519
   13943           0      -503.115967   -600.000122  -33500.00000    165.773346
   13944           0      -503.115967   -600.000122  -33833.33593    179.905212
   13945           0      -838.526489   -600.000122  -29166.66601    136.024887
   13946           0      -838.526489   -600.000122  -29500.00000    118.973457
   13947           0      -838.526489   -600.000122  -29833.33203    126.702530
   13948           0      -838.526489   -600.000122  -30166.66601    119.322655
   13949           0      -838.526489   -600.000122  -30500.00000    129.921127
   13950           0      -838.526489   -600.000122  -30833.33593    135.138733
   13951           0      -838.526489   -600.000122  -31166.66796    139.004318
   13952           0      -838.526489   -600.000122  -31500.00000    141.229477
   13953           0      -838.526489   -600.000122  -31833.33203    141.168671
   13954           0      -838.526489   -600.000122  -32166.66796    139.703049
   13955           0      -838.526489   -600.000122  -32500.00195    136.632904
   13956           0      -838.526489   -600.000122  -32833.33593    129.966293
   13957           0      -838.526489   -600.000122  -33166.66796    130.349960
   13958           0      -838.526489   -600.000122  -33500.00000    129.809738
   13959           0      -838.526489   -600.000122  -33833.33593    145.707367
   13960           0     -1173.936768   -600.000122  -29166.66601     79.833031
   13961           0     -1173.936768   -600.000122  -29500.00000     93.601303
   13962           0     -1173.936768   -600.000122  -29833.33203     58.097698
   13963           0     -1173.936768   -600.000122  -30166.66601     87.060860
   13964           0     -1173.936768   -600.000122  -30500.00000     97.213463
   13965           0     -1173.936768   -600.000122  -30833.33593    104.892006
   13966           0     -1173.936768   -600.000122  -31166.66796    109.439362
   13967           0     -1173.936768   -600.000122  -31500.00000    110.637650
   13968           0     -1173.936768   -600.000122  -31833.33203    111.162514
   13969           0     -1173.936768   -600.000122  -32166.66796    108.965866
   13970           0     -1173.936768   -600.000122  -32500.00195    104.468582
   13971           0     -1173.936768   -600.000122  -32833.33593     97.863792
   13972           0     -1173.936768   -600.000122  -33166.66796     77.429573
   13973           0     -1173.936768   -600.000122  -33500.00000     87.268463
   13974           0     -1173.936768   -600.000122  -33833.33593     87.808441
   13975           0     -1509.347168   -600.000183  -29166.66601    127.737396
   13976           0     -1509.347168   -600.000183  -29500.00000     70.744064
   13977           0     -1509.347168   -600.000183  -29833.33203     54.006962
   13978           0     -1509.347168   -600.000183  -30166.66601     52.640381
   13979           0     -1509.347168   -600.000183  -30500.00000     64.729027
   13980           0     -1509.347168   -600.000183  -30833.33593     68.826210
   13981           0     -1509.347168   -600.000183  -31166.66796     69.669250
   13982           0     -1509.347168   -600.000183  -31500.00000     71.425529
   13983           0     -1509.347168   -600.000183  -31833.33203     70.165642
   13984           0     -1509.347168   -600.000183  -32166.66796     69.744576
   13985           0     -1509.347168   -600.000183  -32500.00195     66.747589
   13986           0     -1509.347168   -600.000183  -32833.33593     59.464497
   13987           0     -1509.347168   -600.000183  -33166.66796     55.263184
   13988           0     -1509.347168   -600.000183  -33500.00000     51.523468
   13989           0     -1509.347168   -600.000183  -33833.33593    124.427391
   13990           0     -1844.756836   -600.000244  -29166.66601    385.306671
   13991           0     -1844.756836   -600.000244  -29500.00000    116.776283
   13992           0     -1844.756836   -600.000244  -29833.33203     55.976292
   13993           0     -1844.756836   -600.000244  -30166.66601     54.522915
   13994           0     -1844.756836   -600.000244  -30500.00000     36.908489
   13995           0     -1844.756836   -600.000244  -30833.33593     31.283411
   13996           0     -1844.756836   -600.000244  -31166.66796     25.359695
   13997           0     -1844.756836   -600.000244  -31500.00000     19.909435
   13998           0     -1844.756836   -600.000244  -31833.33203     20.758818
   13999           0     -1844.756836   -600.000244  -32166.66796     21.366890
   14000           0     -1844.756836   -600.000244  -32500.00195     27.248062
   14001           0     -1844.756836   -600.000244  -32833.33593     37.119740
   14002           0     -1844.756836   -600.000244  -33166.66796     50.669670
   14003           0     -1844.756836   -600.000244  -33500.00000     90.737350
   14004           0     -1844.756836   -600.000244  -33833.33593    372.890381
   14005           0      1844.756104   -600.000000  -14578.05078    394.666901
   14006           0      1844.756104   -600.000000  -14934.14843    127.192322
   14007           0      1844.756104   -600.000000  -15290.24609     70.875572
   14008           0      1844.756104   -600.000000  -15646.34277     74.898308
   14009           0      1844.756104   -600.000000  -16002.44043     58.908604
   14010           0      1844.756104   -600.000000  -16358.53808     58.535530
   14011           0      1844.756104   -600.000000  -16714.63671     52.171494
   14012           0      1844.756104   -600.000000  -17070.73437     50.115108
   14013           0      1844.756104   -600.000000  -17426.83203     46.871090
   14014           0      1844.756104   -600.000000  -17782.92968     44.919865
   14015           0      1844.756104   -600.000000  -18139.02539     43.201904
   14016           0      1844.756104   -600.000000  -18495.12109     41.898373
   14017           0      1844.756104   -600.000000  -18851.22070     41.048195
   14018           0      1844.756104   -600.000000  -19207.31835     40.319019
   14019           0      1844.756104   -600.000000  -19563.41796     39.917492
   14020           0      1844.756104   -600.000000  -19919.51562     39.523781
   14021           0      1844.756104   -600.000000  -20275.61132     39.306057
   14022           0      1844.756104   -600.000000  -20631.70898     39.049026
   14023           0      1844.756104   -600.000000  -20987.80664     38.868256
   14024           0      1844.756104   -600.000000  -21343.90429     38.626686
   14025           0      1844.756104   -600.000000  -21700.00000     38.413799
   14026           0      1844.756104   -600.000000  -22056.09765     38.127651
   14027           0      1844.756104   -600.000000  -22412.19531     37.866570
   14028           0      1844.756104   -600.000000  -22768.29296     37.522984
   14029           0      1844.756104   -600.000000  -23124.39062     37.249844
   14030           0      1844.756104   -600.000000  -23480.48828     36.889912
   14031           0      1844.756104   -600.000000  -23836.58789     36.718777
   14032           0      1844.756104   -600.000000  -24192.68359     36.472450
   14033           0      1844.756104   -600.000000  -24548.78125     36.640167
   14034           0      1844.756104   -600.000000  -24904.87890     36.786957
   14035           0      1844.756104   -600.000000  -25260.97460     37.661400
   14036           0      1844.756104   -600.000000  -25617.07031     38.683537
   14037           0      1844.756104   -600.000000  -25973.16992     40.580875
   14038           0      1844.756104   -600.000000  -26329.26953     43.221294
   14039           0      1844.756104   -600.000000  -26685.36914     45.910469
   14040           0      1844.756104   -600.000000  -27041.46484     51.869827
   14041           0      1844.756104   -600.000000  -27397.56054     53.825642
   14042           0      1844.756104   -600.000000  -27753.66015     70.116943
   14043           0      1844.756104   -600.000000  -28109.75781     67.926086
   14044           0      1844.756104   -600.000000  -28465.85351    127.211151
   14045           0      1844.756104   -600.000000  -28821.95117    371.371277
   14046           0      1509.345825   -600.000000  -14578.05078    134.802734
   14047           0      1509.345825   -600.000000  -14934.14843     60.828499
   14048           0      1509.345825   -600.000000  -15290.24609     73.833656
   14049           0      1509.345825   -600.000000  -15646.34277     70.448723
   14050           0      1509.345825   -600.000000  -16002.44043     85.913483
   14051           0      1509.345825   -600.000000  -16358.53808     89.236023
   14052           0      1509.345825   -600.000000  -16714.63671     92.559937
   14053           0      1509.345825   -600.000000  -17070.73242     94.866341
   14054           0      1509.345825   -600.000000  -17426.83007     96.141014
   14055           0      1509.345825   -600.000000  -17782.92773     97.754761
   14056           0      1509.345825   -600.000000  -18139.02539     98.658249
   14057           0      1509.345825   -600.000000  -18495.12109     99.875587
   14058           0      1509.345825   -600.000000  -18851.21875    100.635201
   14059           0      1509.345825   -600.000000  -19207.31835    101.534554
   14060           0      1509.345825   -600.000000  -19563.41601    102.125824
   14061           0      1509.345825   -600.000000  -19919.51171    102.737122
   14062           0      1509.345825   -600.000000  -20275.61132    103.127724
   14063           0      1509.345825   -600.000000  -20631.70898    103.476868
   14064           0      1509.345825   -600.000000  -20987.80664    103.653282
   14065           0      1509.345825   -600.000000  -21343.90429    103.761322
   14066           0      1509.345825   -600.000000  -21700.00000    103.716385
   14067           0      1509.345825   -600.000000  -22056.09570    103.594368
   14068           0      1509.345825   -600.000000  -22412.19531    103.315331
   14069           0      1509.345825   -600.000000  -22768.29492    102.963463
   14070           0      1509.345825   -600.000000  -23124.39062    102.425949
   14071           0      1509.345825   -600.000000  -23480.48828    101.838791
   14072           0      1509.345703   -600.000000  -23836.58984    101.006523
   14073           0      1509.345703   -600.000000  -24192.68554    100.185333
   14074           0      1509.345703   -600.000000  -24548.78125     99.014801
   14075           0      1509.345703   -600.000000  -24904.87890     97.984489
   14076           0      1509.345703   -600.000000  -25260.97265     96.427917
   14077           0      1509.345703   -600.000000  -25617.06835     95.226418
   14078           0      1509.345703   -600.000000  -25973.16796     93.198502
   14079           0      1509.345703   -600.000000  -26329.26953     91.677979
   14080           0      1509.345703   -600.000000  -26685.37109     88.923340
   14081           0      1509.345703   -600.000000  -27041.46484     85.650337
   14082           0      1509.345703   -600.000000  -27397.56054     82.060104
   14083           0      1509.345703   -600.000000  -27753.66210     67.591118
   14084           0      1509.345703   -600.000000  -28109.75781     71.489487
   14085           0      1509.345703   -600.000000  -28465.85156     59.037403
   14086           0      1509.345825   -600.000000  -28821.94921    118.259705
   14087           0      1173.935547   -600.000061  -14578.05078     93.866264
   14088           0      1173.935547   -600.000061  -14934.14843     98.889091
   14089           0      1173.935547   -600.000061  -15290.24609     65.622040
   14090           0      1173.935547   -600.000061  -15646.34277    104.592674
   14091           0      1173.935547   -600.000061  -16002.44043    114.697182
   14092           0      1173.935547   -600.000061  -16358.53808    125.940994
   14093           0      1173.935547   -600.000061  -16714.63671    132.243790
   14094           0      1173.935547   -600.000061  -17070.73242    136.980438
   14095           0      1173.935547   -600.000061  -17426.83007    140.973236
   14096           0      1173.935547   -600.000061  -17782.92773    143.846756
   14097           0      1173.935547   -600.000061  -18139.02539    146.595200
   14098           0      1173.935425   -600.000061  -18495.12109    148.615051
   14099           0      1173.935425   -600.000061  -18851.21875    150.533752
   14100           0      1173.935425   -600.000061  -19207.31835    151.962143
   14101           0      1173.935425   -600.000061  -19563.41601    153.258789
   14102           0      1173.935425   -600.000061  -19919.51171    154.212219
   14103           0      1173.935425   -600.000061  -20275.61132    155.022202
   14104           0      1173.935425   -600.000061  -20631.70898    155.577576
   14105           0      1173.935425   -600.000061  -20987.80664    155.990585
   14106           0      1173.935425   -600.000061  -21343.90429    156.195602
   14107           0      1173.935425   -600.000061  -21700.00000    156.260941
   14108           0      1173.935425   -600.000061  -22056.09570    156.131119
   14109           0      1173.935425   -600.000061  -22412.19531    155.860107
   14110           0      1173.935425   -600.000061  -22768.29492    155.375351
   14111           0      1173.935425   -600.000061  -23124.39062    154.743729
   14112           0      1173.935425   -600.000061  -23480.48828    153.844635
   14113           0      1173.935425   -600.000061  -23836.58984    152.795044
   14114           0      1173.935425   -600.000061  -24192.68554    151.379303
   14115           0      1173.935425   -600.000061  -24548.78125    149.823761
   14116           0      1173.935425   -600.000061  -24904.87890    147.739212
   14117           0      1173.935425   -600.000061  -25260.97265    145.551132
   14118           0      1173.935425   -600.000061  -25617.06835    142.570190
   14119           0      1173.935425   -600.000061  -25973.16796    139.493515
   14120           0      1173.935425   -600.000061  -26329.26953    135.190674
   14121           0      1173.935425   -600.000061  -26685.37109    130.305176
   14122           0      1173.935425   -600.000061  -27041.46484    123.648247
   14123           0      1173.935425   -600.000061  -27397.56054    112.728600
   14124           0      1173.935425   -600.000061  -27753.66210    102.182129
   14125           0      1173.935425   -600.000061  -28109.75781     66.117882
   14126           0      1173.935425   -600.000061  -28465.85156     93.568268
   14127           0      1173.935547   -600.000061  -28821.94921     85.181984
   14128           0       838.525208   -600.000061  -14578.05078    144.470535
   14129           0       838.525208   -600.000061  -14934.14843    128.694901
   14130           0       838.525208   -600.000061  -15290.24609    135.677963
   14131           0       838.525208   -600.000061  -15646.34277    132.159195
   14132           0       838.525208   -600.000061  -16002.44043    148.001953
   14133           0       838.525208   -600.000061  -16358.53808    155.712296
   14134           0       838.525208   -600.000061  -16714.63671    163.804657
   14135           0       838.525146   -600.000061  -17070.73242    169.760437
   14136           0       838.525146   -600.000061  -17426.83007    174.713470
   14137           0       838.525146   -600.000061  -17782.92773    178.991180
   14138           0       838.525146   -600.000061  -18139.02539    182.396317
   14139           0       838.525146   -600.000061  -18495.12109    185.415344
   14140           0       838.525146   -600.000061  -18851.21875    187.789627
   14141           0       838.525146   -600.000061  -19207.31835    189.857422
   14142           0       838.525146   -600.000061  -19563.41601    191.461288
   14143           0       838.525146   -600.000061  -19919.51171    192.807220
   14144           0       838.525146   -600.000061  -20275.61132    193.813446
   14145           0       838.525146   -600.000061  -20631.70898    194.599854
   14146           0       838.525146   -600.000061  -20987.80664    195.121719
   14147           0       838.525146   -600.000061  -21343.90429    195.448441
   14148           0       838.525085   -600.000061  -21700.00000    195.544800
   14149           0       838.525085   -600.000061  -22056.09570    195.453888
   14150           0       838.525085   -600.000061  -22412.19531    195.130188
   14151           0       838.525085   -600.000061  -22768.29492    194.609421
   14152           0       838.525085   -600.000061  -23124.39062    193.815933
   14153           0       838.525085   -600.000061  -23480.48828    192.799240
   14154           0       838.525085   -600.000061  -23836.58984    191.426361
   14155           0       838.525085   -600.000061  -24192.68554    189.791519
   14156           0       838.525085   -600.000061  -24548.78125    187.662643
   14157           0       838.525085   -600.000061  -24904.87890    185.225677
   14158           0       838.525085   -600.000061  -25260.97265    182.089554
   14159           0       838.525085   -600.000061  -25617.06835    178.578842
   14160           0       838.525085   -600.000061  -25973.16796    174.098557
   14161           0       838.525085   -600.000061  -26329.26953    169.008423
   14162           0       838.525024   -600.000061  -26685.37109    162.743774
   14163           0       838.524963   -600.000061  -27041.46484    154.620422
   14164           0       838.524963   -600.000061  -27397.56054    146.502609
   14165           0       838.524963   -600.000061  -27753.66210    131.232529
   14166           0       838.524963   -600.000061  -28109.75781    133.567978
   14167           0       838.524963   -600.000061  -28465.85156    125.248375
   14168           0       838.525085   -600.000061  -28821.94921    139.773270
   14169           0       503.114929   -600.000061  -14578.05078    171.707092
   14170           0       503.114929   -600.000061  -14934.14843    170.102554
   14171           0       503.114929   -600.000061  -15290.24609    162.538788
   14172           0       503.114929   -600.000061  -15646.34277    167.254593
   14173           0       503.114929   -600.000061  -16002.44043    169.848114
   14174           0       503.114929   -600.000061  -16358.53808    178.558380
   14175           0       503.114929   -600.000061  -16714.63671    185.140427
   14176           0       503.114868   -600.000061  -17070.73242    191.722961
   14177           0       503.114868   -600.000061  -17426.83007    197.314041
   14178           0       503.114868   -600.000061  -17782.92773    202.102859
   14179           0       503.114868   -600.000061  -18139.02539    206.237671
   14180           0       503.114868   -600.000061  -18495.12109    209.632950
   14181           0       503.114868   -600.000061  -18851.21875    212.529724
   14182           0       503.114868   -600.000061  -19207.31835    214.859314
   14183           0       503.114868   -600.000061  -19563.41601    216.800186
   14184           0       503.114868   -600.000061  -19919.51171    218.320816
   14185           0       503.114868   -600.000061  -20275.61132    219.534866
   14186           0       503.114868   -600.000061  -20631.70898    220.429459
   14187           0       503.114868   -600.000061  -20987.80664    221.071991
   14188           0       503.114868   -600.000061  -21343.90429    221.451736
   14189           0       503.114807   -600.000061  -21700.00000    221.606216
   14190           0       503.114746   -600.000061  -22056.09570    221.514709
   14191           0       503.114746   -600.000061  -22412.19531    221.197327
   14192           0       503.114746   -600.000061  -22768.29492    220.612411
   14193           0       503.114746   -600.000061  -23124.39062    219.773636
   14194           0       503.114746   -600.000061  -23480.48828    218.604401
   14195           0       503.114746   -600.000061  -23836.58984    217.126099
   14196           0       503.114746   -600.000061  -24192.68554    215.206177
   14197           0       503.114746   -600.000061  -24548.78125    212.895920
   14198           0       503.114746   -600.000061  -24904.87890    209.978638
   14199           0       503.114746   -600.000061  -25260.97265    206.566071
   14200           0       503.114746   -600.000061  -25617.06835    202.340866
   14201           0       503.114746   -600.000061  -25973.16796    197.482239
   14202           0       503.114746   -600.000061  -26329.26953    191.693024
   14203           0       503.114685   -600.000061  -26685.37109    184.989136
   14204           0       503.114685   -600.000061  -27041.46484    178.078156
   14205           0       503.114685   -600.000061  -27397.56054    169.259003
   14206           0       503.114685   -600.000061  -27753.66210    166.123550
   14207           0       503.114685   -600.000061  -28109.75781    160.596375
   14208           0       503.114685   -600.000061  -28465.85156    166.939438
   14209           0       503.114807   -600.000061  -28821.94921    166.218246
   14210           0       167.704681   -600.000122  -14578.05078    187.801697
   14211           0       167.704681   -600.000122  -14934.14843    183.774338
   14212           0       167.704681   -600.000122  -15290.24609    181.600250
   14213           0       167.704681   -600.000122  -15646.34277    180.228165
   14214           0       167.704681   -600.000122  -16002.44043    184.163376
   14215           0       167.704681   -600.000122  -16358.53808    189.293686
   14216           0       167.704681   -600.000122  -16714.63671    196.094711
   14217           0       167.704681   -600.000122  -17070.73242    202.452774
   14218           0       167.704681   -600.000122  -17426.83007    208.330612
   14219           0       167.704681   -600.000122  -17782.92773    213.446152
   14220           0       167.704681   -600.000122  -18139.02539    217.819260
   14221           0       167.704681   -600.000122  -18495.12109    221.518951
   14222           0       167.704681   -600.000122  -18851.21875    224.587570
   14223           0       167.704681   -600.000122  -19207.31835    227.130295
   14224           0       167.704681   -600.000122  -19563.41601    229.190384
   14225           0       167.704681   -600.000122  -19919.51171    230.850479
   14226           0       167.704681   -600.000122  -20275.61132    232.145020
   14227           0       167.704681   -600.000122  -20631.70898    233.128464
   14228           0       167.704681   -600.000122  -20987.80664    233.821594
   14229           0       167.704681   -600.000122  -21343.90429    234.255127
   14230           0       167.704620   -600.000122  -21700.00000    234.433960
   14231           0       167.704559   -600.000122  -22056.09570    234.369644
   14232           0       167.704559   -600.000122  -22412.19531    234.048462
   14233           0       167.704559   -600.000122  -22768.29492    233.466751
   14234           0       167.704559   -600.000122  -23124.39062    232.587708
   14235           0       167.704559   -600.000122  -23480.48828    231.395889
   14236           0       167.704559   -600.000122  -23836.58984    229.823914
   14237           0       167.704559   -600.000122  -24192.68554    227.850510
   14238           0       167.704559   -600.000122  -24548.78125    225.366577
   14239           0       167.704559   -600.000122  -24904.87890    222.357727
   14240           0       167.704559   -600.000122  -25260.97265    218.666016
   14241           0       167.704559   -600.000122  -25617.06835    214.309296
   14242           0       167.704559   -600.000122  -25973.16796    209.116821
   14243           0       167.704559   -600.000122  -26329.26953    203.186005
   14244           0       167.704559   -600.000122  -26685.37109    196.619370
   14245           0       167.704559   -600.000122  -27041.46484    189.629486
   14246           0       167.704559   -600.000122  -27397.56054    184.093719
   14247           0       167.704559   -600.000122  -27753.66210    179.483032
   14248           0       167.704559   -600.000122  -28109.75781    179.912491
   14249           0       167.704559   -600.000122  -28465.85156    180.377594
   14250           0       167.704620   -600.000122  -28821.94921    182.952484
   14251           0      -167.705566   -600.000122  -14578.05078    186.928635
   14252           0      -167.705566   -600.000122  -14934.14843    182.791519
   14253           0      -167.705566   -600.000122  -15290.24609    180.826828
   14254           0      -167.705566   -600.000122  -15646.34277    179.396851
   14255           0      -167.705566   -600.000122  -16002.44043    183.427094
   14256           0      -167.705566   -600.000122  -16358.53808    188.641190
   14257           0      -167.705566   -600.000122  -16714.63671    195.443970
   14258           0      -167.705566   -600.000122  -17070.73242    201.889664
   14259           0      -167.705566   -600.000122  -17426.83007    207.755081
   14260           0      -167.705566   -600.000122  -17782.92773    212.917404
   14261           0      -167.705505   -600.000122  -18139.02539    217.282318
   14262           0      -167.705444   -600.000122  -18495.12109    221.007919
   14263           0      -167.705444   -600.000122  -18851.21875    224.076538
   14264           0      -167.705444   -600.000122  -19207.31835    226.638092
   14265           0      -167.705444   -600.000122  -19563.41601    228.705643
   14266           0      -167.705444   -600.000122  -19919.51171    230.383575
   14267           0      -167.705444   -600.000122  -20275.61132    231.691376
   14268           0      -167.705444   -600.000122  -20631.70898    232.693741
   14269           0      -167.705444   -600.000122  -20987.80664    233.404648
   14270           0      -167.705444   -600.000122  -21343.90429    233.858994
   14271           0      -167.705475   -600.000122  -21700.00000    234.059357
   14272           0      -167.705505   -600.000122  -22056.09570    234.018005
   14273           0      -167.705505   -600.000122  -22412.19531    233.722153
   14274           0      -167.705505   -600.000122  -22768.29492    233.165665
   14275           0      -167.705505   -600.000122  -23124.39062    232.316376
   14276           0      -167.705505   -600.000122  -23480.48828    231.152008
   14277           0      -167.705505   -600.000122  -23836.58984    229.615677
   14278           0      -167.705505   -600.000122  -24192.68554    227.671082
   14279           0      -167.705505   -600.000122  -24548.78125    225.231384
   14280           0      -167.705505   -600.000122  -24904.87890    222.250534
   14281           0      -167.705444   -600.000122  -25260.97460    218.615555
   14282           0      -167.705383   -600.000122  -25617.07031    214.280319
   14283           0      -167.705383   -600.000122  -25973.16796    209.160599
   14284           0      -167.705383   -600.000122  -26329.26953    203.230087
   14285           0      -167.705383   -600.000122  -26685.37109    196.736481
   14286           0      -167.705383   -600.000122  -27041.46484    189.692352
   14287           0      -167.705383   -600.000122  -27397.56054    184.094025
   14288           0      -167.705383   -600.000122  -27753.66210    179.381989
   14289           0      -167.705383   -600.000122  -28109.75781    179.479446
   14290           0      -167.705383   -600.000122  -28465.85156    180.003372
   14291           0      -167.705475   -600.000122  -28821.94921    182.276443
   14292           0      -503.115967   -600.000122  -14578.05078    168.523453
   14293           0      -503.115967   -600.000122  -14934.14843    167.244385
   14294           0      -503.115967   -600.000122  -15290.24609    159.987000
   14295           0      -503.115967   -600.000122  -15646.34277    164.835571
   14296           0      -503.115967   -600.000122  -16002.44043    167.877579
   14297           0      -503.115967   -600.000122  -16358.53808    176.543335
   14298           0      -503.116028   -600.000122  -16714.63671    183.371201
   14299           0      -503.116089   -600.000122  -17070.73242    189.989456
   14300           0      -503.116089   -600.000122  -17426.83007    195.686050
   14301           0      -503.116089   -600.000122  -17782.92773    200.496323
   14302           0      -503.116028   -600.000122  -18139.02539    204.681152
   14303           0      -503.115967   -600.000122  -18495.12109    208.095245
   14304           0      -503.115967   -600.000122  -18851.21875    211.029266
   14305           0      -503.115967   -600.000122  -19207.31835    213.386398
   14306           0      -503.115967   -600.000122  -19563.41601    215.367630
   14307           0      -503.115967   -600.000122  -19919.51171    216.927322
   14308           0      -503.115967   -600.000122  -20275.61132    218.189255
   14309           0      -503.115967   -600.000122  -20631.70898    219.133713
   14310           0      -503.115967   -600.000122  -20987.80664    219.832367
   14311           0      -503.115967   -600.000122  -21343.90429    220.271667
   14312           0      -503.116028   -600.000122  -21700.00000    220.490311
   14313           0      -503.116089   -600.000122  -22056.09570    220.467896
   14314           0      -503.116089   -600.000122  -22412.19531    220.222931
   14315           0      -503.116089   -600.000122  -22768.29492    219.717392
   14316           0      -503.116089   -600.000122  -23124.39062    218.959915
   14317           0      -503.116089   -600.000122  -23480.48828    217.882416
   14318           0      -503.116089   -600.000122  -23836.58984    216.494919
   14319           0      -503.116089   -600.000122  -24192.68554    214.682388
   14320           0      -503.116089   -600.000122  -24548.78125    212.472336
   14321           0      -503.116089   -600.000122  -24904.87890    209.682617
   14322           0      -503.116028   -600.000122  -25260.97460    206.376419
   14323           0      -503.115967   -600.000122  -25617.07031    202.303055
   14324           0      -503.115967   -600.000122  -25973.16796    197.543030
   14325           0      -503.115967   -600.000122  -26329.26953    191.919739
   14326           0      -503.116028   -600.000122  -26685.37109    185.251038
   14327           0      -503.116089   -600.000122  -27041.46484    178.418289
   14328           0      -503.116089   -600.000122  -27397.56054    169.367493
   14329           0      -503.116089   -600.000122  -27753.66210    165.755478
   14330           0      -503.116089   -600.000122  -28109.75781    159.756348
   14331           0      -503.116089   -600.000122  -28465.85156    165.234756
   14332           0      -503.116028   -600.000122  -28821.94921    164.648926
   14333           0      -838.526489   -600.000122  -14578.05078    137.645859
   14334           0      -838.526489   -600.000122  -14934.14843    123.119110
   14335           0      -838.526489   -600.000122  -15290.24609    130.754059
   14336           0      -838.526489   -600.000122  -15646.34277    129.576355
   14337           0      -838.526489   -600.000122  -16002.44043    144.637146
   14338           0      -838.526489   -600.000122  -16358.53808    152.902374
   14339           0      -838.526489   -600.000122  -16714.63671    160.968536
   14340           0      -838.526611   -600.000122  -17070.73242    167.092148
   14341           0      -838.526611   -600.000122  -17426.83007    172.092133
   14342           0      -838.526611   -600.000122  -17782.92773    176.432037
   14343           0      -838.526611   -600.000122  -18139.02539    179.874252
   14344           0      -838.526611   -600.000122  -18495.12109    182.934174
   14345           0      -838.526611   -600.000122  -18851.21875    185.349976
   14346           0      -838.526611   -600.000122  -19207.31835    187.466873
   14347           0      -838.526611   -600.000122  -19563.41601    189.127060
   14348           0      -838.526611   -600.000122  -19919.51171    190.537994
   14349           0      -838.526611   -600.000122  -20275.61132    191.617279
   14350           0      -838.526611   -600.000122  -20631.70898    192.484741
   14351           0      -838.526611   -600.000122  -20987.80664    193.095596
   14352           0      -838.526611   -600.000122  -21343.90429    193.518173
   14353           0      -838.526611   -600.000122  -21700.00000    193.718719
   14354           0      -838.526733   -600.000122  -22056.09570    193.737976
   14355           0      -838.526733   -600.000122  -22412.19531    193.534241
   14356           0      -838.526733   -600.000122  -22768.29492    193.138458
   14357           0      -838.526733   -600.000122  -23124.39062    192.483017
   14358           0      -838.526733   -600.000122  -23480.48828    191.607391
   14359           0      -838.526733   -600.000122  -23836.58984    190.394547
   14360           0      -838.526733   -600.000122  -24192.68554    188.918152
   14361           0      -838.526733   -600.000122  -24548.78125    186.976852
   14362           0      -838.526733   -600.000122  -24904.87890    184.714996
   14363           0      -838.526733   -600.000122  -25260.97460    181.800659
   14364           0      -838.526733   -600.000122  -25617.07031    178.474167
   14365           0      -838.526733   -600.000122  -25973.16796    174.253128
   14366           0      -838.526733   -600.000122  -26329.26953    169.323105
   14367           0      -838.526733   -600.000122  -26685.37109    163.328568
   14368           0      -838.526855   -600.000122  -27041.46484    155.203903
   14369           0      -838.526855   -600.000122  -27397.56054    147.174545
   14370           0      -838.526855   -600.000122  -27753.66210    131.165161
   14371           0      -838.526855   -600.000122  -28109.75781    132.072800
   14372           0      -838.526855   -600.000122  -28465.85156    122.964340
   14373           0      -838.526611   -600.000122  -28821.94921    136.205521
   14374           0     -1173.936768   -600.000122  -14578.05078     76.121223
   14375           0     -1173.936768   -600.000122  -14934.14843     86.597130
   14376           0     -1173.936768   -600.000122  -15290.24609     67.375023
   14377           0     -1173.936768   -600.000122  -15646.34277    100.795425
   14378           0     -1173.936768   -600.000122  -16002.44043    111.746613
   14379           0     -1173.936768   -600.000122  -16358.53808    122.540131
   14380           0     -1173.936768   -600.000122  -16714.63671    128.899155
   14381           0     -1173.936768   -600.000122  -17070.73242    133.643097
   14382           0     -1173.936768   -600.000122  -17426.83007    137.637848
   14383           0     -1173.936768   -600.000122  -17782.92773    140.551682
   14384           0     -1173.936768   -600.000122  -18139.02539    143.304443
   14385           0     -1173.936768   -600.000122  -18495.12109    145.367508
   14386           0     -1173.936768   -600.000122  -18851.21875    147.315369
   14387           0     -1173.936768   -600.000122  -19207.31835    148.803024
   14388           0     -1173.936768   -600.000122  -19563.41601    150.159363
   14389           0     -1173.936768   -600.000122  -19919.51171    151.194458
   14390           0     -1173.936768   -600.000122  -20275.61132    152.092224
   14391           0     -1173.936768   -600.000122  -20631.70898    152.751831
   14392           0     -1173.936768   -600.000122  -20987.80664    153.276886
   14393           0     -1173.936768   -600.000122  -21343.90429    153.607803
   14394           0     -1173.936768   -600.000122  -21700.00000    153.806885
   14395           0     -1173.936768   -600.000122  -22056.09570    153.824677
   14396           0     -1173.936768   -600.000122  -22412.19531    153.708679
   14397           0     -1173.936768   -600.000122  -22768.29492    153.395172
   14398           0     -1173.936768   -600.000122  -23124.39062    152.941055
   14399           0     -1173.936768   -600.000122  -23480.48828    152.241196
   14400           0     -1173.936768   -600.000122  -23836.58984    151.393616
   14401           0     -1173.936768   -600.000122  -24192.68554    150.211090
   14402           0     -1173.936768   -600.000122  -24548.78125    148.883469
   14403           0     -1173.936768   -600.000122  -24904.87890    147.074097
   14404           0     -1173.936890   -600.000122  -25260.97460    145.137085
   14405           0     -1173.937012   -600.000122  -25617.07031    142.482071
   14406           0     -1173.937012   -600.000122  -25973.16796    139.664536
   14407           0     -1173.937012   -600.000122  -26329.26953    135.746582
   14408           0     -1173.937012   -600.000122  -26685.37109    131.074844
   14409           0     -1173.937012   -600.000122  -27041.46484    124.867355
   14410           0     -1173.937012   -600.000122  -27397.56054    113.913536
   14411           0     -1173.937012   -600.000122  -27753.66210    103.802132
   14412           0     -1173.937012   -600.000122  -28109.75781     65.808426
   14413           0     -1173.937012   -600.000122  -28465.85156     88.797935
   14414           0     -1173.936768   -600.000122  -28821.94921     81.303658
   14415           0     -1509.347168   -600.000183  -14578.05078    112.240585
   14416           0     -1509.347168   -600.000183  -14934.14843     77.050652
   14417           0     -1509.347168   -600.000183  -15290.24609     76.465042
   14418           0     -1509.347046   -600.000183  -15646.34277     70.766174
   14419           0     -1509.347046   -600.000183  -16002.44043     84.260201
   14420           0     -1509.347046   -600.000183  -16358.53808     86.735855
   14421           0     -1509.347046   -600.000183  -16714.63671     89.671425
   14422           0     -1509.346924   -600.000183  -17070.73242     91.731392
   14423           0     -1509.346924   -600.000183  -17426.83007     92.892204
   14424           0     -1509.346924   -600.000183  -17782.92773     94.391472
   14425           0     -1509.346924   -600.000183  -18139.02539     95.256393
   14426           0     -1509.346924   -600.000183  -18495.12109     96.421310
   14427           0     -1509.346924   -600.000183  -18851.21875     97.185867
   14428           0     -1509.346924   -600.000183  -19207.31835     98.087608
   14429           0     -1509.346924   -600.000183  -19563.41601     98.723312
   14430           0     -1509.346924   -600.000183  -19919.51171     99.385048
   14431           0     -1509.346924   -600.000183  -20275.61132     99.856361
   14432           0     -1509.346924   -600.000183  -20631.70898    100.295982
   14433           0     -1509.346680   -600.000183  -20987.80664    100.586128
   14434           0     -1509.346680   -600.000183  -21343.90429    100.818810
   14435           0     -1509.346680   -600.000183  -21700.00000    100.919090
   14436           0     -1509.346680   -600.000183  -22056.09570    100.953156
   14437           0     -1509.346558   -600.000183  -22412.19531    100.851913
   14438           0     -1509.346436   -600.000183  -22768.29492    100.687851
   14439           0     -1509.346436   -600.000183  -23124.39062    100.364731
   14440           0     -1509.346436   -600.000183  -23480.48828     99.999344
   14441           0     -1509.346436   -600.000183  -23836.58984     99.424866
   14442           0     -1509.346436   -600.000183  -24192.68554     98.861969
   14443           0     -1509.346436   -600.000183  -24548.78125     98.001663
   14444           0     -1509.346436   -600.000183  -24904.87890     97.265564
   14445           0     -1509.346436   -600.000183  -25260.97460     96.082214
   14446           0     -1509.346436   -600.000183  -25617.07031     95.199806
   14447           0     -1509.346436   -600.000183  -25973.16796     93.622543
   14448           0     -1509.346436   -600.000183  -26329.26953     92.412148
   14449           0     -1509.346436   -600.000183  -26685.37109     90.228088
   14450           0     -1509.346313   -600.000183  -27041.46484     87.185921
   14451           0     -1509.346313   -600.000183  -27397.56054     84.468018
   14452           0     -1509.346313   -600.000183  -27753.66210     70.130157
   14453           0     -1509.346313   -600.000183  -28109.75781     75.702682
   14454           0     -1509.346313   -600.000183  -28465.85156     61.938118
   14455           0     -1509.346802   -600.000183  -28821.94921    112.259872
   14456           0     -1844.756836   -600.000244  -14578.05078    376.532257
   14457           0     -1844.756836   -600.000244  -14934.14843    137.973434
   14458           0     -1844.756836   -600.000244  -15290.24609     76.505524
   14459           0     -1844.756592   -600.000244  -15646.34277     77.756821
   14460           0     -1844.756592   -600.000244  -16002.44140     63.091515
   14461           0     -1844.756592   -600.000244  -16358.53808     59.765198
   14462           0     -1844.756592   -600.000244  -16714.63671     54.682804
   14463           0     -1844.756592   -600.000244  -17070.73242     51.043659
   14464           0     -1844.756592   -600.000244  -17426.83007     48.340172
   14465           0     -1844.756592   -600.000244  -17782.92773     45.568207
   14466           0     -1844.756592   -600.000244  -18139.02539     43.917637
   14467           0     -1844.756348   -600.000244  -18495.12109     42.131271
   14468           0     -1844.756348   -600.000244  -18851.21875     41.152912
   14469           0     -1844.756348   -600.000244  -19207.31835     40.106747
   14470           0     -1844.756348   -600.000244  -19563.41601     39.540482
   14471           0     -1844.756348   -600.000244  -19919.51367     38.936069
   14472           0     -1844.756348   -600.000244  -20275.61132     38.585815
   14473           0     -1844.756348   -600.000244  -20631.70898     38.201557
   14474           0     -1844.756348   -600.000244  -20987.80664     37.944191
   14475           0     -1844.756104   -600.000244  -21343.90429     37.648651
   14476           0     -1844.756104   -600.000244  -21700.00000     37.422756
   14477           0     -1844.756104   -600.000244  -22056.09765     37.152378
   14478           0     -1844.756104   -600.000244  -22412.19726     36.946922
   14479           0     -1844.756104   -600.000244  -22768.29296     36.690281
   14480           0     -1844.756104   -600.000244  -23124.39062     36.548775
   14481           0     -1844.756104   -600.000244  -23480.48828     36.350723
   14482           0     -1844.756104   -600.000244  -23836.58789     36.396389
   14483           0     -1844.755859   -600.000244  -24192.68359     36.385906
   14484           0     -1844.755859   -600.000244  -24548.78125     36.858646
   14485           0     -1844.755859   -600.000244  -24904.87890     37.292938
   14486           0     -1844.755859   -600.000244  -25260.97460     38.540588
   14487           0     -1844.755859   -600.000244  -25617.07226     39.838638
   14488           0     -1844.755859   -600.000244  -25973.17187     42.126808
   14489           0     -1844.755859   -600.000244  -26329.26953     44.945980
   14490           0     -1844.755859   -600.000244  -26685.36914     47.992531
   14491           0     -1844.755859   -600.000244  -27041.46484     54.011974
   14492           0     -1844.755859   -600.000244  -27397.56250     56.247402
   14493           0     -1844.755859   -600.000244  -27753.66015     72.604866
   14494           0     -1844.755615   -600.000244  -28109.75781     70.606102
   14495           0     -1844.755615   -600.000244  -28465.85351    129.936752
   14496           0     -1844.756104   -600.000244  -28821.95117    383.548218
   14497           0      1844.756104   -600.000000   -180.003326    379.830566
   14498           0      1844.756104   -600.000000   -540.003357    106.309967
   14499           0      1844.756104   -600.000000   -900.003418     67.025772
   14500           0      1844.756104   -600.000000  -1260.003418     56.059189
   14501           0      1844.756104   -600.000000  -1620.003418     47.162460
   14502           0      1844.756104   -600.000000  -1980.003418     43.886002
   14503           0      1844.756104   -600.000000  -2340.003662     40.713051
   14504           0      1844.756104   -600.000000  -2700.003418     38.894890
   14505           0      1844.756104   -600.000000  -3060.003174     37.559216
   14506           0      1844.756104   -600.000000  -3420.003418     36.758778
   14507           0      1844.756104   -600.000000  -3780.003418     36.402409
   14508           0      1844.756104   -600.000000  -4140.003906     36.292183
   14509           0      1844.756104   -600.000000  -4500.003906     36.444580
   14510           0      1844.756104   -600.000000  -4860.003906     36.682430
   14511           0      1844.756104   -600.000000  -5220.003906     37.028263
   14512           0      1844.756104   -600.000000  -5580.003906     37.376793
   14513           0      1844.756104   -600.000000  -5940.003906     37.741848
   14514           0      1844.756104   -600.000000  -6300.003906     38.078083
   14515           0      1844.756104   -600.000000  -6660.003906     38.385422
   14516           0      1844.756104   -600.000000  -7020.003906     38.664360
   14517           0      1844.756104   -600.000000  -7380.003906     38.894691
   14518           0      1844.756104   -600.000000  -7740.003906     39.122585
   14519           0      1844.756104   -600.000000  -8100.003906     39.297184
   14520           0      1844.756104   -600.000000  -8460.003906     39.526897
   14521           0      1844.756104   -600.000000  -8820.003906     39.714016
   14522           0      1844.756104   -600.000000  -9180.003906     40.059765
   14523           0      1844.756104   -600.000000  -9540.003906     40.404007
   14524           0      1844.756104   -600.000000  -9900.003906     41.060173
   14525           0      1844.756104   -600.000000  -10260.00390     41.829597
   14526           0      1844.756104   -600.000000  -10620.00390     43.038834
   14527           0      1844.756104   -600.000000  -10980.00390     44.670364
   14528           0      1844.756104   -600.000000  -11340.00390     46.520283
   14529           0      1844.756104   -600.000000  -11700.00390     49.702221
   14530           0      1844.756104   -600.000000  -12060.00390     51.658253
   14531           0      1844.756104   -600.000000  -12420.00390     57.990360
   14532           0      1844.756104   -600.000000  -12780.00390     58.236874
   14533           0      1844.756104   -600.000000  -13140.00390     74.144424
   14534           0      1844.756104   -600.000000  -13500.00390     69.899567
   14535           0      1844.756104   -600.000000  -13860.00390    126.014526
   14536           0      1844.756104   -600.000000  -14220.00293    393.304199
   14537           0      1509.345825   -600.000000   -180.003326    112.778534
   14538           0      1509.345825   -600.000000   -540.003296     56.625755
   14539           0      1509.345825   -600.000000   -900.003418     70.674652
   14540           0      1509.345825   -600.000000  -1260.003418     74.872330
   14541           0      1509.345825   -600.000000  -1620.003418     83.918251
   14542           0      1509.345825   -600.000000  -1980.003296     87.427971
   14543           0      1509.345825   -600.000000  -2340.003418     90.381012
   14544           0      1509.345825   -600.000000  -2700.003418     92.639145
   14545           0      1509.345825   -600.000000  -3060.003174     94.405411
   14546           0      1509.345825   -600.000000  -3420.003418     96.061684
   14547           0      1509.345825   -600.000000  -3780.003418     97.411049
   14548           0      1509.345825   -600.000000  -4140.003418     98.686241
   14549           0      1509.345825   -600.000000  -4500.003418     99.737747
   14550           0      1509.345825   -600.000000  -4860.003418    100.692650
   14551           0      1509.345825   -600.000000  -5220.003418    101.469757
   14552           0      1509.345825   -600.000000  -5580.003418    102.136902
   14553           0      1509.345825   -600.000000  -5940.003418    102.658333
   14554           0      1509.345825   -600.000000  -6300.003418    103.064407
   14555           0      1509.345825   -600.000000  -6660.003418    103.348816
   14556           0      1509.345825   -600.000000  -7020.003418    103.511337
   14557           0      1509.345825   -600.000000  -7380.003418    103.571602
   14558           0      1509.345825   -600.000000  -7740.003906    103.494530
   14559           0      1509.345825   -600.000000  -8100.003906    103.336029
   14560           0      1509.345825   -600.000000  -8460.003906    103.008606
   14561           0      1509.345825   -600.000000  -8820.003906    102.633308
   14562           0      1509.345825   -600.000000  -9180.003906    102.032616
   14563           0      1509.345825   -600.000000  -9540.002930    101.450005
   14564           0      1509.345825   -600.000000  -9900.003906    100.547569
   14565           0      1509.345947   -600.000000  -10260.00390     99.787392
   14566           0      1509.345947   -600.000000  -10620.00390     98.552795
   14567           0      1509.345947   -600.000000  -10980.00390     97.641022
   14568           0      1509.345947   -600.000000  -11340.00390     96.004608
   14569           0      1509.345947   -600.000000  -11700.00390     94.725189
   14570           0      1509.345947   -600.000000  -12060.00390     92.418587
   14571           0      1509.345947   -600.000000  -12420.00390     89.113861
   14572           0      1509.345947   -600.000000  -12780.00390     85.863014
   14573           0      1509.345947   -600.000000  -13140.00390     70.452148
   14574           0      1509.345947   -600.000000  -13500.00390     73.998886
   14575           0      1509.345947   -600.000000  -13860.00390     59.710670
   14576           0      1509.345947   -600.000000  -14220.00293    134.359573
   14577           0      1173.935547   -600.000061   -180.003326     95.037460
   14578           0      1173.935547   -600.000061   -540.003296     88.797134
   14579           0      1173.935547   -600.000061   -900.003418     88.517326
   14580           0      1173.935547   -600.000061  -1260.003418    113.063225
   14581           0      1173.935547   -600.000061  -1620.003418    122.096619
   14582           0      1173.935547   -600.000061  -1980.003296    130.098419
   14583           0      1173.935547   -600.000061  -2340.003418    135.221359
   14584           0      1173.935547   -600.000061  -2700.003418    139.298737
   14585           0      1173.935547   -600.000061  -3060.003174    142.608521
   14586           0      1173.935547   -600.000061  -3420.003418    145.289764
   14587           0      1173.935547   -600.000061  -3780.003418    147.597855
   14588           0      1173.935547   -600.000061  -4140.003418    149.483673
   14589           0      1173.935547   -600.000061  -4500.003418    151.100357
   14590           0      1173.935547   -600.000061  -4860.003418    152.408783
   14591           0      1173.935547   -600.000061  -5220.003418    153.497787
   14592           0      1173.935547   -600.000061  -5580.003418    154.351288
   14593           0      1173.935547   -600.000061  -5940.003418    155.017044
   14594           0      1173.935547   -600.000061  -6300.003418    155.494095
   14595           0      1173.935547   -600.000061  -6660.003418    155.799561
   14596           0      1173.935547   -600.000061  -7020.003418    155.943481
   14597           0      1173.935547   -600.000061  -7380.003418    155.913635
   14598           0      1173.935547   -600.000061  -7740.003906    155.734512
   14599           0      1173.935547   -600.000061  -8100.003906    155.356827
   14600           0      1173.935547   -600.000061  -8460.003906    154.832748
   14601           0      1173.935547   -600.000061  -8820.003906    154.055832
   14602           0      1173.935547   -600.000061  -9180.003906    153.134598
   14603           0      1173.935547   -600.000061  -9540.002930    151.866211
   14604           0      1173.935669   -600.000061  -9900.003906    150.467148
   14605           0      1173.935669   -600.000061  -10260.00390    148.569748
   14606           0      1173.935669   -600.000061  -10620.00390    146.573547
   14607           0      1173.935669   -600.000061  -10980.00390    143.841919
   14608           0      1173.935669   -600.000061  -11340.00390    140.988083
   14609           0      1173.935669   -600.000061  -11700.00390    137.027054
   14610           0      1173.935669   -600.000061  -12060.00390    132.321457
   14611           0      1173.935669   -600.000061  -12420.00390    126.121017
   14612           0      1173.935669   -600.000061  -12780.00390    114.951447
   14613           0      1173.935669   -600.000061  -13140.00390    105.087112
   14614           0      1173.935669   -600.000061  -13500.00390     66.180244
   14615           0      1173.935669   -600.000061  -13860.00390     98.597771
   14616           0      1173.935547   -600.000061  -14220.00293     93.573982
   14617           0       838.525208   -600.000061   -180.003326    155.342392
   14618           0       838.525208   -600.000061   -540.003296    140.717407
   14619           0       838.525208   -600.000061   -900.003418    141.669418
   14620           0       838.525208   -600.000061  -1260.003418    145.966507
   14621           0       838.525208   -600.000061  -1620.003418    156.702957
   14622           0       838.525208   -600.000061  -1980.003296    163.559265
   14623           0       838.525208   -600.000061  -2340.003418    169.833237
   14624           0       838.525208   -600.000061  -2700.003418    174.735748
   14625           0       838.525208   -600.000061  -3060.003174    178.858078
   14626           0       838.525208   -600.000061  -3420.003418    182.306519
   14627           0       838.525208   -600.000061  -3780.003418    185.157028
   14628           0       838.525208   -600.000061  -4140.003418    187.555649
   14629           0       838.525208   -600.000061  -4500.003418    189.511200
   14630           0       838.525208   -600.000061  -4860.003418    191.127686
   14631           0       838.525208   -600.000061  -5220.003418    192.412735
   14632           0       838.525208   -600.000061  -5580.003418    193.430954
   14633           0       838.525208   -600.000061  -5940.003418    194.192810
   14634           0       838.525208   -600.000061  -6300.003418    194.731628
   14635           0       838.525208   -600.000061  -6660.003418    195.058563
   14636           0       838.525146   -600.000061  -7020.003418    195.179764
   14637           0       838.525085   -600.000061  -7380.003418    195.107742
   14638           0       838.525085   -600.000061  -7740.003906    194.819519
   14639           0       838.525085   -600.000061  -8100.003906    194.334518
   14640           0       838.525085   -600.000061  -8460.003906    193.591400
   14641           0       838.525085   -600.000061  -8820.003906    192.629028
   14642           0       838.525085   -600.000061  -9180.003906    191.328064
   14643           0       838.525085   -600.000061  -9540.002930    189.770645
   14644           0       838.525085   -600.000061  -9900.003906    187.746307
   14645           0       838.525085   -600.000061  -10260.00390    185.416504
   14646           0       838.525085   -600.000061  -10620.00390    182.436874
   14647           0       838.525085   -600.000061  -10980.00390    179.068985
   14648           0       838.525085   -600.000061  -11340.00390    174.829758
   14649           0       838.525085   -600.000061  -11700.00390    169.903397
   14650           0       838.525085   -600.000061  -12060.00390    164.005783
   14651           0       838.525085   -600.000061  -12420.00390    155.933441
   14652           0       838.525085   -600.000061  -12780.00390    148.309509
   14653           0       838.525085   -600.000061  -13140.00390    132.434860
   14654           0       838.525085   -600.000061  -13500.00390    135.574783
   14655           0       838.525085   -600.000061  -13860.00390    128.740219
   14656           0       838.525146   -600.000061  -14220.00293    144.650665
   14657           0       503.114929   -600.000061   -180.003326    192.580719
   14658           0       503.114929   -600.000061   -540.003296    178.545883
   14659           0       503.114929   -600.000061   -900.003418    173.486191
   14660           0       503.114929   -600.000061  -1260.003418    176.102325
   14661           0       503.114929   -600.000061  -1620.003418    180.670090
   14662           0       503.114929   -600.000061  -1980.003296    187.447296
   14663           0       503.114929   -600.000061  -2340.003418    193.200043
   14664           0       503.114868   -600.000061  -2700.003418    198.526947
   14665           0       503.114868   -600.000061  -3060.003174    203.046143
   14666           0       503.114868   -600.000061  -3420.003418    206.891830
   14667           0       503.114868   -600.000061  -3780.003418    210.126709
   14668           0       503.114868   -600.000061  -4140.003418    212.800903
   14669           0       503.114868   -600.000061  -4500.003418    215.013077
   14670           0       503.114868   -600.000061  -4860.003418    216.798645
   14671           0       503.114868   -600.000061  -5220.003418    218.231995
   14672           0       503.114868   -600.000061  -5580.003418    219.341095
   14673           0       503.114868   -600.000061  -5940.003418    220.171951
   14674           0       503.114868   -600.000061  -6300.003418    220.744446
   14675           0       503.114868   -600.000061  -6660.003418    221.079376
   14676           0       503.114807   -600.000061  -7020.003418    221.188568
   14677           0       503.114746   -600.000061  -7380.003418    221.068802
   14678           0       503.114746   -600.000061  -7740.003906    220.725800
   14679           0       503.114746   -600.000061  -8100.003906    220.129425
   14680           0       503.114746   -600.000061  -8460.003906    219.283707
   14681           0       503.114746   -600.000061  -8820.003906    218.123138
   14682           0       503.114746   -600.000061  -9180.003906    216.658661
   14683           0       503.114746   -600.000061  -9540.002930    214.774750
   14684           0       503.114746   -600.000061  -9900.003906    212.503860
   14685           0       503.114746   -600.000061  -10260.00390    209.663010
   14686           0       503.114746   -600.000061  -10620.00390    206.322052
   14687           0       503.114746   -600.000061  -10980.00390    202.236389
   14688           0       503.114746   -600.000061  -11340.00390    197.485550
   14689           0       503.114746   -600.000061  -11700.00390    191.930923
   14690           0       503.114746   -600.000061  -12060.00390    185.349457
   14691           0       503.114685   -600.000061  -12420.00390    178.778946
   14692           0       503.114685   -600.000061  -12780.00390    170.007034
   14693           0       503.114685   -600.000061  -13140.00390    167.243820
   14694           0       503.114685   -600.000061  -13500.00390    162.537415
   14695           0       503.114685   -600.000061  -13860.00390    170.020157
   14696           0       503.114807   -600.000061  -14220.00293    171.573685
   14697           0       167.704681   -600.000122   -180.003326    208.963135
   14698           0       167.704681   -600.000122   -540.003296    195.827835
   14699           0       167.704681   -600.000122   -900.003418    190.497833
   14700           0       167.704681   -600.000122  -1260.003418    190.530579
   14701           0       167.704681   -600.000122  -1620.003418    194.392410
   14702           0       167.704681   -600.000122  -1980.003296    199.511887
   14703           0       167.704651   -600.000122  -2340.003418    205.205887
   14704           0       167.704620   -600.000122  -2700.003418    210.445511
   14705           0       167.704620   -600.000122  -3060.003174    215.112839
   14706           0       167.704620   -600.000122  -3420.003418    219.118500
   14707           0       167.704620   -600.000122  -3780.003418    222.493042
   14708           0       167.704620   -600.000122  -4140.003418    225.305496
   14709           0       167.704620   -600.000122  -4500.003418    227.610062
   14710           0       167.704620   -600.000122  -4860.003418    229.480774
   14711           0       167.704620   -600.000122  -5220.003418    230.964676
   14712           0       167.704620   -600.000122  -5580.003418    232.115082
   14713           0       167.704620   -600.000122  -5940.003418    232.965073
   14714           0       167.704620   -600.000122  -6300.003418    233.546021
   14715           0       167.704620   -600.000122  -6660.003418    233.876053
   14716           0       167.704559   -600.000122  -7020.003418    233.966476
   14717           0       167.704498   -600.000122  -7380.003418    233.821060
   14718           0       167.704498   -600.000122  -7740.003906    233.431473
   14719           0       167.704498   -600.000122  -8100.003906    232.788025
   14720           0       167.704498   -600.000122  -8460.003906    231.860718
   14721           0       167.704498   -600.000122  -8820.003906    230.626785
   14722           0       167.704498   -600.000122  -9180.003906    229.030563
   14723           0       167.704498   -600.000122  -9540.002930    227.037613
   14724           0       167.704498   -600.000122  -9900.003906    224.561935
   14725           0       167.704498   -600.000122  -10260.00390    221.561386
   14726           0       167.704498   -600.000122  -10620.00390    217.924240
   14727           0       167.704498   -600.000122  -10980.00390    213.609497
   14728           0       167.704498   -600.000122  -11340.00390    208.537735
   14729           0       167.704498   -600.000122  -11700.00390    202.685593
   14730           0       167.704468   -600.000122  -12060.00390    196.322449
   14731           0       167.704437   -600.000122  -12420.00390    189.466553
   14732           0       167.704437   -600.000122  -12780.00390    184.228516
   14733           0       167.704437   -600.000122  -13140.00390    180.193466
   14734           0       167.704437   -600.000122  -13500.00390    181.479309
   14735           0       167.704437   -600.000122  -13860.00390    183.669617
   14736           0       167.704559   -600.000122  -14220.00293    187.818878
   14737           0      -167.705566   -600.000122   -180.003326    207.154007
   14738           0      -167.705566   -600.000122   -540.003296    194.852859
   14739           0      -167.705566   -600.000122   -900.003418    190.184418
   14740           0      -167.705627   -600.000122  -1260.003418    190.693024
   14741           0      -167.705688   -600.000122  -1620.003418    194.622406
   14742           0      -167.705688   -600.000122  -1980.003296    199.704712
   14743           0      -167.705688   -600.000122  -2340.003418    205.295410
   14744           0      -167.705688   -600.000122  -2700.003418    210.436447
   14745           0      -167.705688   -600.000122  -3060.003174    215.031982
   14746           0      -167.705750   -600.000122  -3420.003418    218.973740
   14747           0      -167.705811   -600.000122  -3780.003418    222.302948
   14748           0      -167.705811   -600.000122  -4140.003418    225.072693
   14749           0      -167.705811   -600.000122  -4500.003418    227.343979
   14750           0      -167.705811   -600.000122  -4860.003418    229.182297
   14751           0      -167.705811   -600.000122  -5220.003418    230.638824
   14752           0      -167.705811   -600.000122  -5580.003418    231.762756
   14753           0      -167.705872   -600.000122  -5940.003418    232.589478
   14754           0      -167.705933   -600.000122  -6300.003418    233.148056
   14755           0      -167.705933   -600.000122  -6660.003418    233.458328
   14756           0      -167.705963   -600.000122  -7020.003418    233.529572
   14757           0      -167.705994   -600.000122  -7380.003418    233.367828
   14758           0      -167.705994   -600.000122  -7740.003906    232.962082
   14759           0      -167.705994   -600.000122  -8100.003906    232.306030
   14760           0      -167.706055   -600.000122  -8460.003906    231.365280
   14761           0      -167.706116   -600.000122  -8820.003906    230.123398
   14762           0      -167.706116   -600.000122  -9180.003906    228.516144
   14763           0      -167.706116   -600.000122  -9540.002930    226.521179
   14764           0      -167.706116   -600.000122  -9900.003906    224.035370
   14765           0      -167.706116   -600.000122  -10260.00390    221.040009
   14766           0      -167.706116   -600.000122  -10620.00390    217.388824
   14767           0      -167.706177   -600.000122  -10980.00390    213.085800
   14768           0      -167.706238   -600.000122  -11340.00390    207.983261
   14769           0      -167.706238   -600.000122  -11700.00390    202.141495
   14770           0      -167.706238   -600.000122  -12060.00390    195.707977
   14771           0      -167.706238   -600.000122  -12420.00390    188.835251
   14772           0      -167.706238   -600.000122  -12780.00390    183.504166
   14773           0      -167.706299   -600.000122  -13140.00390    179.363113
   14774           0      -167.706360   -600.000122  -13500.00390    180.648056
   14775           0      -167.706360   -600.000122  -13860.00390    182.692276
   14776           0      -167.705963   -600.000122  -14220.00293    186.884415
   14777           0      -503.115967   -600.000122   -180.003326    187.169876
   14778           0      -503.115967   -600.000122   -540.003296    175.574173
   14779           0      -503.115967   -600.000122   -900.003418    172.919388
   14780           0      -503.116028   -600.000122  -1260.003418    176.575394
   14781           0      -503.116089   -600.000122  -1620.003418    181.402802
   14782           0      -503.116089   -600.000122  -1980.003296    187.953064
   14783           0      -503.116089   -600.000122  -2340.003418    193.403137
   14784           0      -503.116089   -600.000122  -2700.003418    198.469666
   14785           0      -503.116089   -600.000122  -3060.003174    202.770386
   14786           0      -503.116211   -600.000122  -3420.003418    206.450485
   14787           0      -503.116333   -600.000122  -3780.003418    209.543533
   14788           0      -503.116333   -600.000122  -4140.003418    212.102982
   14789           0      -503.116333   -600.000122  -4500.003418    214.210938
   14790           0      -503.116333   -600.000122  -4860.003418    215.906250
   14791           0      -503.116333   -600.000122  -5220.003418    217.255402
   14792           0      -503.116333   -600.000122  -5580.003418    218.288925
   14793           0      -503.116394   -600.000122  -5940.003418    219.049011
   14794           0      -503.116455   -600.000122  -6300.003418    219.557175
   14795           0      -503.116455   -600.000122  -6660.003418    219.832001
   14796           0      -503.116455   -600.000122  -7020.003418    219.886795
   14797           0      -503.116455   -600.000122  -7380.003418    219.716614
   14798           0      -503.116455   -600.000122  -7740.003906    219.329041
   14799           0      -503.116455   -600.000122  -8100.003906    218.691925
   14800           0      -503.116516   -600.000122  -8460.003906    217.812378
   14801           0      -503.116577   -600.000122  -8820.003906    216.621490
   14802           0      -503.116577   -600.000122  -9180.003906    215.135529
   14803           0      -503.116577   -600.000122  -9540.002930    213.232178
   14804           0      -503.116577   -600.000122  -9900.003906    210.953217
   14805           0      -503.116577   -600.000122  -10260.00390    208.100784
   14806           0      -503.116577   -600.000122  -10620.00390    204.762054
   14807           0      -503.116699   -600.000122  -10980.00390    200.657959
   14808           0      -503.116821   -600.000122  -11340.00390    195.905167
   14809           0      -503.116821   -600.000122  -11700.00390    190.279755
   14810           0      -503.116821   -600.000122  -12060.00390    183.667725
   14811           0      -503.116821   -600.000122  -12420.00390    176.866119
   14812           0      -503.116821   -600.000122  -12780.00390    168.091751
   14813           0      -503.116882   -600.000122  -13140.00390    164.803360
   14814           0      -503.116943   -600.000122  -13500.00390    159.928360
   14815           0      -503.116943   -600.000122  -13860.00390    167.000778
   14816           0      -503.116455   -600.000122  -14220.00293    168.399689
   14817           0      -838.526489   -600.000122   -180.003326    146.186401
   14818           0      -838.526489   -600.000122   -540.003296    136.539093
   14819           0      -838.526489   -600.000122   -900.003418    141.196030
   14820           0      -838.526489   -600.000122  -1260.003418    147.137421
   14821           0      -838.526489   -600.000122  -1620.003418    157.763031
   14822           0      -838.526489   -600.000122  -1980.003296    164.163895
   14823           0      -838.526489   -600.000122  -2340.003418    169.999496
   14824           0      -838.526489   -600.000122  -2700.003418    174.513306
   14825           0      -838.526489   -600.000122  -3060.003174    178.334869
   14826           0      -838.526489   -600.000122  -3420.003418    181.526276
   14827           0      -838.526611   -600.000122  -3780.003418    184.169525
   14828           0      -838.526611   -600.000122  -4140.003418    186.382202
   14829           0      -838.526611   -600.000122  -4500.003418    188.177750
   14830           0      -838.526611   -600.000122  -4860.003418    189.646133
   14831           0      -838.526611   -600.000122  -5220.003418    190.798721
   14832           0      -838.526611   -600.000122  -5580.003418    191.693359
   14833           0      -838.526611   -600.000122  -5940.003418    192.342850
   14834           0      -838.526611   -600.000122  -6300.003418    192.777176
   14835           0      -838.526611   -600.000122  -6660.003418    193.008804
   14836           0      -838.526611   -600.000122  -7020.003418    193.042313
   14837           0      -838.526611   -600.000122  -7380.003418    192.890869
   14838           0      -838.526611   -600.000122  -7740.003906    192.531403
   14839           0      -838.526611   -600.000122  -8100.003906    191.983459
   14840           0      -838.526611   -600.000122  -8460.003906    191.186874
   14841           0      -838.526611   -600.000122  -8820.003906    190.179749
   14842           0      -838.526611   -600.000122  -9180.003906    188.845703
   14843           0      -838.526611   -600.000122  -9540.002930    187.263565
   14844           0      -838.526611   -600.000122  -9900.003906    185.228317
   14845           0      -838.526611   -600.000122  -10260.00390    182.892471
   14846           0      -838.526611   -600.000122  -10620.00390    179.918518
   14847           0      -838.526611   -600.000122  -10980.00390    176.551849
   14848           0      -838.526733   -600.000122  -11340.00390    172.305740
   14849           0      -838.526733   -600.000122  -11700.00390    167.366089
   14850           0      -838.526733   -600.000122  -12060.00390    161.355438
   14851           0      -838.526733   -600.000122  -12420.00390    153.308121
   14852           0      -838.526733   -600.000122  -12780.00390    145.141388
   14853           0      -838.526733   -600.000122  -13140.00390    129.915100
   14854           0      -838.526733   -600.000122  -13500.00390    130.510880
   14855           0      -838.526733   -600.000122  -13860.00390    123.045609
   14856           0      -838.526611   -600.000122  -14220.00293    137.581177
   14857           0     -1173.936768   -600.000122   -180.003326     82.034531
   14858           0     -1173.936768   -600.000122   -540.003296     83.532631
   14859           0     -1173.936768   -600.000122   -900.003418     89.938217
   14860           0     -1173.936768   -600.000122  -1260.003418    114.524780
   14861           0     -1173.936768   -600.000122  -1620.003418    123.000351
   14862           0     -1173.936768   -600.000122  -1980.003296    130.481491
   14863           0     -1173.936768   -600.000122  -2340.003418    135.115921
   14864           0     -1173.936768   -600.000122  -2700.003418    138.800995
   14865           0     -1173.936768   -600.000122  -3060.003174    141.759750
   14866           0     -1173.936768   -600.000122  -3420.003418    144.150574
   14867           0     -1173.936768   -600.000122  -3780.003418    146.194092
   14868           0     -1173.936768   -600.000122  -4140.003418    147.850754
   14869           0     -1173.936768   -600.000122  -4500.003418    149.254944
   14870           0     -1173.936768   -600.000122  -4860.003418    150.373703
   14871           0     -1173.936768   -600.000122  -5220.003418    151.286118
   14872           0     -1173.936768   -600.000122  -5580.003418    151.979736
   14873           0     -1173.936768   -600.000122  -5940.003418    152.497360
   14874           0     -1173.936768   -600.000122  -6300.003418    152.839661
   14875           0     -1173.936768   -600.000122  -6660.003418    153.021790
   14876           0     -1173.936768   -600.000122  -7020.003418    153.053818
   14877           0     -1173.936768   -600.000122  -7380.003418    152.924362
   14878           0     -1173.936768   -600.000122  -7740.003906    152.655899
   14879           0     -1173.936768   -600.000122  -8100.003906    152.203705
   14880           0     -1173.936768   -600.000122  -8460.003906    151.614349
   14881           0     -1173.936768   -600.000122  -8820.003906    150.792252
   14882           0     -1173.936768   -600.000122  -9180.003906    149.832428
   14883           0     -1173.936768   -600.000122  -9540.002930    148.554337
   14884           0     -1173.936768   -600.000122  -9900.003906    147.144608
   14885           0     -1173.936768   -600.000122  -10260.00390    145.278427
   14886           0     -1173.936768   -600.000122  -10620.00390    143.293716
   14887           0     -1173.936768   -600.000122  -10980.00390    140.631348
   14888           0     -1173.936768   -600.000122  -11340.00390    137.794937
   14889           0     -1173.936768   -600.000122  -11700.00390    133.918839
   14890           0     -1173.936768   -600.000122  -12060.00390    129.252686
   14891           0     -1173.936768   -600.000122  -12420.00390    123.090836
   14892           0     -1173.936768   -600.000122  -12780.00390    112.361702
   14893           0     -1173.936768   -600.000122  -13140.00390    101.728371
   14894           0     -1173.936768   -600.000122  -13500.00390     68.009331
   14895           0     -1173.936768   -600.000122  -13860.00390     85.736046
   14896           0     -1173.936768   -600.000122  -14220.00293     75.895531
   14897           0     -1509.347168   -600.000183   -180.003326    111.274887
   14898           0     -1509.347168   -600.000183   -540.003296     59.190048
   14899           0     -1509.347168   -600.000183   -900.003418     71.094414
   14900           0     -1509.347168   -600.000183  -1260.003418     75.126083
   14901           0     -1509.347168   -600.000183  -1620.003418     84.013153
   14902           0     -1509.347168   -600.000183  -1980.003296     87.220802
   14903           0     -1509.347168   -600.000183  -2340.003418     89.881256
   14904           0     -1509.347046   -600.000183  -2700.003418     91.806755
   14905           0     -1509.347046   -600.000183  -3060.003174     93.260895
   14906           0     -1509.347046   -600.000183  -3420.003418     94.612541
   14907           0     -1509.347046   -600.000183  -3780.003418     95.683022
   14908           0     -1509.347046   -600.000183  -4140.003418     96.697563
   14909           0     -1509.347046   -600.000183  -4500.003418     97.512955
   14910           0     -1509.347046   -600.000183  -4860.003418     98.250412
   14911           0     -1509.347046   -600.000183  -5220.003418     98.831665
   14912           0     -1509.347046   -600.000183  -5580.003418     99.320450
   14913           0     -1509.347046   -600.000183  -5940.003418     99.682137
   14914           0     -1509.347046   -600.000183  -6300.003418     99.945251
   14915           0     -1509.347046   -600.000183  -6660.003418    100.102951
   14916           0     -1509.347046   -600.000183  -7020.003418    100.156136
   14917           0     -1509.346924   -600.000183  -7380.003418    100.121689
   14918           0     -1509.346924   -600.000183  -7740.003906     99.970146
   14919           0     -1509.346924   -600.000183  -8100.003906     99.750374
   14920           0     -1509.346924   -600.000183  -8460.003906     99.388268
   14921           0     -1509.346924   -600.000183  -8820.003906     98.989189
   14922           0     -1509.346924   -600.000183  -9180.003906     98.402649
   14923           0     -1509.346924   -600.000183  -9540.002930     97.839363
   14924           0     -1509.346924   -600.000183  -9900.003906     97.011902
   14925           0     -1509.346924   -600.000183  -10260.00390     96.318756
   14926           0     -1509.346924   -600.000183  -10620.00390     95.231377
   14927           0     -1509.346924   -600.000183  -10980.00390     94.436356
   14928           0     -1509.346924   -600.000183  -11340.00390     93.031670
   14929           0     -1509.346924   -600.000183  -11700.00390     91.939163
   14930           0     -1509.346924   -600.000183  -12060.00390     90.028877
   14931           0     -1509.346924   -600.000183  -12420.00390     87.151367
   14932           0     -1509.346924   -600.000183  -12780.00390     84.968880
   14933           0     -1509.346924   -600.000183  -13140.00390     71.495209
   14934           0     -1509.346924   -600.000183  -13500.00390     77.671921
   14935           0     -1509.346924   -600.000183  -13860.00390     76.394257
   14936           0     -1509.347046   -600.000183  -14220.00293    110.776520
   14937           0     -1844.756836   -600.000244   -180.003326    398.487793
   14938           0     -1844.756836   -600.000244   -540.003357    101.443970
   14939           0     -1844.756836   -600.000244   -900.003418     64.498199
   14940           0     -1844.756836   -600.000244  -1260.003418     54.482830
   14941           0     -1844.756836   -600.000244  -1620.003418     46.395939
   14942           0     -1844.756836   -600.000244  -1980.003418     43.312164
   14943           0     -1844.756836   -600.000244  -2340.003662     40.402077
   14944           0     -1844.756592   -600.000244  -2700.003662     38.393497
   14945           0     -1844.756592   -600.000244  -3060.003418     37.020283
   14946           0     -1844.756592   -600.000244  -3420.003418     35.940662
   14947           0     -1844.756592   -600.000244  -3780.003662     35.444458
   14948           0     -1844.756592   -600.000244  -4140.003418     35.095238
   14949           0     -1844.756592   -600.000244  -4500.003418     35.114929
   14950           0     -1844.756592   -600.000244  -4860.003906     35.193615
   14951           0     -1844.756592   -600.000244  -5220.003906     35.456234
   14952           0     -1844.756592   -600.000244  -5580.003906     35.726707
   14953           0     -1844.756592   -600.000244  -5940.003418     36.068855
   14954           0     -1844.756592   -600.000244  -6300.003906     36.401165
   14955           0     -1844.756592   -600.000244  -6660.003906     36.747532
   14956           0     -1844.756592   -600.000244  -7020.003906     37.092655
   14957           0     -1844.756592   -600.000244  -7380.003418     37.425060
   14958           0     -1844.756592   -600.000244  -7740.003906     37.790932
   14959           0     -1844.756592   -600.000244  -8100.003906     38.132492
   14960           0     -1844.756592   -600.000244  -8460.003906     38.579792
   14961           0     -1844.756592   -600.000244  -8820.003906     38.996807
   14962           0     -1844.756592   -600.000244  -9180.003906     39.654118
   14963           0     -1844.756592   -600.000244  -9540.002930     40.271057
   14964           0     -1844.756592   -600.000244  -9900.003906     41.357113
   14965           0     -1844.756592   -600.000244  -10260.00390     42.371727
   14966           0     -1844.756592   -600.000244  -10620.00390     44.183502
   14967           0     -1844.756592   -600.000244  -10980.00390     45.863758
   14968           0     -1844.756592   -600.000244  -11340.00390     48.645485
   14969           0     -1844.756592   -600.000244  -11700.00390     51.390015
   14970           0     -1844.756592   -600.000244  -12060.00390     55.006580
   14971           0     -1844.756348   -600.000244  -12420.00390     60.159603
   14972           0     -1844.756348   -600.000244  -12780.00390     63.365379
   14973           0     -1844.756348   -600.000244  -13140.00390     78.109077
   14974           0     -1844.756348   -600.000244  -13500.00390     76.512520
   14975           0     -1844.756348   -600.000244  -13860.00390    138.013275
   14976           0     -1844.756592   -600.000244  -14220.00293    375.627625